MoSSe_Se_up__WSSe_S_up | Janus TMDC Hete
   1.00000000000000     
    15.9515798090000001    0.0000000000000000    0.0000000000000000
    -7.9757899045000000   13.8144733454999997    0.0000000000000000
     0.0000000000000000    0.0000000000000000   28.2498397219514530
   Mo   W    S    Se
    25    25    50    50
Direct
  0.1333333999999979  0.0666665999999978  0.0533208392875798
  0.1333333999999979  0.2666666000000006  0.0533208392875798
  0.1333333999999979  0.4666666000000035  0.0533208392875798
  0.1333333999999979  0.6666665999999992  0.0533208392875798
  0.1333333999999979  0.8666666000000021  0.0533208392875798
  0.3333334000000008  0.0666665999999978  0.0533208392875798
  0.3333334000000008  0.2666666000000006  0.0533208392875798
  0.3333334000000008  0.4666666000000035  0.0533208392875798
  0.3333334000000008  0.6666665999999992  0.0533208392875798
  0.3333334000000008  0.8666666000000021  0.0533208392875798
  0.5333334000000036  0.0666665999999978  0.0533208392875798
  0.5333334000000036  0.2666666000000006  0.0533208392875798
  0.5333334000000036  0.4666666000000035  0.0533208392875798
  0.5333334000000036  0.6666665999999992  0.0533208392875798
  0.5333333999999965  0.8666666000000021  0.0533208392875798
  0.7333333999999994  0.0666665999999978  0.0533208392875798
  0.7333333999999994  0.2666666000000006  0.0533208392875798
  0.7333333999999994  0.4666666000000035  0.0533208392875798
  0.7333333999999994  0.6666665999999992  0.0533208392875798
  0.7333333999999994  0.8666666000000021  0.0533208392875798
  0.9333334000000022  0.0666665999999978  0.0533208392875798
  0.9333334000000022  0.2666666000000006  0.0533208392875798
  0.9333334000000022  0.4666666000000035  0.0533208392875798
  0.9333334000000022  0.6666665999999992  0.0533208392875798
  0.9333334000000022  0.8666666000000021  0.0533208392875798
  0.0666665999999978  0.1333333999999979  0.4123363795112810
  0.0666665999999978  0.3333334000000008  0.4123363795112810
  0.0666665999999978  0.5333334000000036  0.4123363795112810
  0.0666665999999978  0.7333333999999994  0.4123363795112810
  0.0666665999999978  0.9333334000000022  0.4123363795112810
  0.2666666000000006  0.1333333999999979  0.4123363795112810
  0.2666666000000006  0.3333334000000008  0.4123363795112810
  0.2666666000000006  0.5333334000000036  0.4123363795112810
  0.2666666000000006  0.7333333999999994  0.4123363795112810
  0.2666666000000006  0.9333334000000022  0.4123363795112810
  0.4666666000000035  0.1333333999999979  0.4123363795112810
  0.4666666000000035  0.3333334000000008  0.4123363795112810
  0.4666666000000035  0.5333334000000036  0.4123363795112810
  0.4666666000000035  0.7333333999999994  0.4123363795112810
  0.4666666000000035  0.9333334000000022  0.4123363795112810
  0.6666665999999992  0.1333333999999979  0.4123363795112810
  0.6666665999999992  0.3333334000000008  0.4123363795112810
  0.6666665999999992  0.5333334000000036  0.4123363795112810
  0.6666665999999992  0.7333333999999994  0.4123363795112810
  0.6666665999999992  0.9333334000000022  0.4123363795112810
  0.8666666000000021  0.1333333999999979  0.4123363795112810
  0.8666666000000021  0.3333334000000008  0.4123363795112810
  0.8666666000000021  0.5333334000000036  0.4123363795112810
  0.8666666000000021  0.7333333999999994  0.4123363795112810
  0.8666666000000021  0.9333334000000022  0.4123363795112810
  0.0666665999999978  0.1333333999999979 -0.0014837260532863
  0.0666665999999978  0.3333334000000008 -0.0014837260532863
  0.0666665999999978  0.5333334000000036 -0.0014837260532863
  0.0666665999999978  0.7333333999999994 -0.0014837260532863
  0.0666665999999978  0.9333334000000022 -0.0014837260532863
  0.2666666000000006  0.1333333999999979 -0.0014837260532863
  0.2666666000000006  0.3333334000000008 -0.0014837260532863
  0.2666666000000006  0.5333334000000036 -0.0014837260532863
  0.2666666000000006  0.7333333999999994 -0.0014837260532863
  0.2666666000000006  0.9333334000000022 -0.0014837260532863
  0.4666666000000035  0.1333333999999979 -0.0014837260532863
  0.4666666000000035  0.3333334000000008 -0.0014837260532863
  0.4666666000000035  0.5333334000000036 -0.0014837260532863
  0.4666666000000035  0.7333333999999994 -0.0014837260532863
  0.4666666000000035  0.9333334000000022 -0.0014837260532863
  0.6666665999999992  0.1333333999999979 -0.0014837260532863
  0.6666665999999992  0.3333334000000008 -0.0014837260532863
  0.6666665999999992  0.5333334000000036 -0.0014837260532863
  0.6666665999999992  0.7333333999999994 -0.0014837260532863
  0.6666665999999992  0.9333334000000022 -0.0014837260532863
  0.8666666000000021  0.1333333999999979 -0.0014837260532863
  0.8666666000000021  0.3333334000000008 -0.0014837260532863
  0.8666666000000021  0.5333334000000036 -0.0014837260532863
  0.8666666000000021  0.7333333999999994 -0.0014837260532863
  0.8666666000000021  0.9333334000000022 -0.0014837260532863
  0.1333333999999979  0.0666665999999978  0.4674888305022549
  0.1333333999999979  0.2666666000000006  0.4674888305022549
  0.1333333999999979  0.4666666000000035  0.4674888305022549
  0.1333333999999979  0.6666665999999992  0.4674888305022549
  0.1333333999999979  0.8666666000000021  0.4674888305022549
  0.3333334000000008  0.0666665999999978  0.4674888305022549
  0.3333334000000008  0.2666666000000006  0.4674888305022549
  0.3333334000000008  0.4666666000000035  0.4674888305022549
  0.3333334000000008  0.6666665999999992  0.4674888305022549
  0.3333334000000008  0.8666666000000021  0.4674888305022549
  0.5333334000000036  0.0666665999999978  0.4674888305022549
  0.5333334000000036  0.2666666000000006  0.4674888305022549
  0.5333334000000036  0.4666666000000035  0.4674888305022549
  0.5333334000000036  0.6666665999999992  0.4674888305022549
  0.5333333999999965  0.8666666000000021  0.4674888305022549
  0.7333333999999994  0.0666665999999978  0.4674888305022549
  0.7333333999999994  0.2666666000000006  0.4674888305022549
  0.7333333999999994  0.4666666000000035  0.4674888305022549
  0.7333333999999994  0.6666665999999992  0.4674888305022549
  0.7333333999999994  0.8666666000000021  0.4674888305022549
  0.9333334000000022  0.0666665999999978  0.4674888305022549
  0.9333334000000022  0.2666666000000006  0.4674888305022549
  0.9333334000000022  0.4666666000000035  0.4674888305022549
  0.9333334000000022  0.6666665999999992  0.4674888305022549
  0.9333334000000022  0.8666666000000021  0.4674888305022549
  0.0666665999999978  0.1333333999999979  0.1144154377102822
  0.0666665999999978  0.3333334000000008  0.1144154377102822
  0.0666665999999978  0.5333334000000036  0.1144154377102822
  0.0666665999999978  0.7333333999999994  0.1144154377102822
  0.0666665999999978  0.9333334000000022  0.1144154377102822
  0.2666666000000006  0.1333333999999979  0.1144154377102822
  0.2666666000000006  0.3333334000000008  0.1144154377102822
  0.2666666000000006  0.5333334000000036  0.1144154377102822
  0.2666666000000006  0.7333333999999994  0.1144154377102822
  0.2666666000000006  0.9333334000000022  0.1144154377102822
  0.4666666000000035  0.1333333999999979  0.1144154377102822
  0.4666666000000035  0.3333334000000008  0.1144154377102822
  0.4666666000000035  0.5333334000000036  0.1144154377102822
  0.4666666000000035  0.7333333999999994  0.1144154377102822
  0.4666666000000035  0.9333334000000022  0.1144154377102822
  0.6666665999999992  0.1333333999999979  0.1144154377102822
  0.6666665999999992  0.3333334000000008  0.1144154377102822
  0.6666665999999992  0.5333334000000036  0.1144154377102822
  0.6666665999999992  0.7333333999999994  0.1144154377102822
  0.6666665999999992  0.9333334000000022  0.1144154377102822
  0.8666666000000021  0.1333333999999979  0.1144154377102822
  0.8666666000000021  0.3333334000000008  0.1144154377102822
  0.8666666000000021  0.5333334000000036  0.1144154377102822
  0.8666666000000021  0.7333333999999994  0.1144154377102822
  0.8666666000000021  0.9333334000000022  0.1144154377102822
  0.1333333999999979  0.0666665999999978  0.3508882350141048
  0.1333333999999979  0.2666666000000006  0.3508882350141048
  0.1333333999999979  0.4666666000000035  0.3508882350141048
  0.1333333999999979  0.6666665999999992  0.3508882350141048
  0.1333333999999979  0.8666666000000021  0.3508882350141048
  0.3333334000000008  0.0666665999999978  0.3508882350141048
  0.3333334000000008  0.2666666000000006  0.3508882350141048
  0.3333334000000008  0.4666666000000035  0.3508882350141048
  0.3333334000000008  0.6666665999999992  0.3508882350141048
  0.3333334000000008  0.8666666000000021  0.3508882350141048
  0.5333334000000036  0.0666665999999978  0.3508882350141048
  0.5333334000000036  0.2666666000000006  0.3508882350141048
  0.5333334000000036  0.4666666000000035  0.3508882350141048
  0.5333334000000036  0.6666665999999992  0.3508882350141048
  0.5333333999999965  0.8666666000000021  0.3508882350141048
  0.7333333999999994  0.0666665999999978  0.3508882350141048
  0.7333333999999994  0.2666666000000006  0.3508882350141048
  0.7333333999999994  0.4666666000000035  0.3508882350141048
  0.7333333999999994  0.6666665999999992  0.3508882350141048
  0.7333333999999994  0.8666666000000021  0.3508882350141048
  0.9333334000000022  0.0666665999999978  0.3508882350141048
  0.9333334000000022  0.2666666000000006  0.3508882350141048
  0.9333334000000022  0.4666666000000035  0.3508882350141048
  0.9333334000000022  0.6666665999999992  0.3508882350141048
  0.9333334000000022  0.8666666000000021  0.3508882350141048
 
  0.00000000E+00  0.00000000E+00  0.00000000E+00
  0.00000000E+00  0.00000000E+00  0.00000000E+00
  0.00000000E+00  0.00000000E+00  0.00000000E+00
  0.00000000E+00  0.00000000E+00  0.00000000E+00
  0.00000000E+00  0.00000000E+00  0.00000000E+00
  0.00000000E+00  0.00000000E+00  0.00000000E+00
  0.00000000E+00  0.00000000E+00  0.00000000E+00
  0.00000000E+00  0.00000000E+00  0.00000000E+00
  0.00000000E+00  0.00000000E+00  0.00000000E+00
  0.00000000E+00  0.00000000E+00  0.00000000E+00
  0.00000000E+00  0.00000000E+00  0.00000000E+00
  0.00000000E+00  0.00000000E+00  0.00000000E+00
  0.00000000E+00  0.00000000E+00  0.00000000E+00
  0.00000000E+00  0.00000000E+00  0.00000000E+00
  0.00000000E+00  0.00000000E+00  0.00000000E+00
  0.00000000E+00  0.00000000E+00  0.00000000E+00
  0.00000000E+00  0.00000000E+00  0.00000000E+00
  0.00000000E+00  0.00000000E+00  0.00000000E+00
  0.00000000E+00  0.00000000E+00  0.00000000E+00
  0.00000000E+00  0.00000000E+00  0.00000000E+00
  0.00000000E+00  0.00000000E+00  0.00000000E+00
  0.00000000E+00  0.00000000E+00  0.00000000E+00
  0.00000000E+00  0.00000000E+00  0.00000000E+00
  0.00000000E+00  0.00000000E+00  0.00000000E+00
  0.00000000E+00  0.00000000E+00  0.00000000E+00
  0.00000000E+00  0.00000000E+00  0.00000000E+00
  0.00000000E+00  0.00000000E+00  0.00000000E+00
  0.00000000E+00  0.00000000E+00  0.00000000E+00
  0.00000000E+00  0.00000000E+00  0.00000000E+00
  0.00000000E+00  0.00000000E+00  0.00000000E+00
  0.00000000E+00  0.00000000E+00  0.00000000E+00
  0.00000000E+00  0.00000000E+00  0.00000000E+00
  0.00000000E+00  0.00000000E+00  0.00000000E+00
  0.00000000E+00  0.00000000E+00  0.00000000E+00
  0.00000000E+00  0.00000000E+00  0.00000000E+00
  0.00000000E+00  0.00000000E+00  0.00000000E+00
  0.00000000E+00  0.00000000E+00  0.00000000E+00
  0.00000000E+00  0.00000000E+00  0.00000000E+00
  0.00000000E+00  0.00000000E+00  0.00000000E+00
  0.00000000E+00  0.00000000E+00  0.00000000E+00
  0.00000000E+00  0.00000000E+00  0.00000000E+00
  0.00000000E+00  0.00000000E+00  0.00000000E+00
  0.00000000E+00  0.00000000E+00  0.00000000E+00
  0.00000000E+00  0.00000000E+00  0.00000000E+00
  0.00000000E+00  0.00000000E+00  0.00000000E+00
  0.00000000E+00  0.00000000E+00  0.00000000E+00
  0.00000000E+00  0.00000000E+00  0.00000000E+00
  0.00000000E+00  0.00000000E+00  0.00000000E+00
  0.00000000E+00  0.00000000E+00  0.00000000E+00
  0.00000000E+00  0.00000000E+00  0.00000000E+00
  0.00000000E+00  0.00000000E+00  0.00000000E+00
  0.00000000E+00  0.00000000E+00  0.00000000E+00
  0.00000000E+00  0.00000000E+00  0.00000000E+00
  0.00000000E+00  0.00000000E+00  0.00000000E+00
  0.00000000E+00  0.00000000E+00  0.00000000E+00
  0.00000000E+00  0.00000000E+00  0.00000000E+00
  0.00000000E+00  0.00000000E+00  0.00000000E+00
  0.00000000E+00  0.00000000E+00  0.00000000E+00
  0.00000000E+00  0.00000000E+00  0.00000000E+00
  0.00000000E+00  0.00000000E+00  0.00000000E+00
  0.00000000E+00  0.00000000E+00  0.00000000E+00
  0.00000000E+00  0.00000000E+00  0.00000000E+00
  0.00000000E+00  0.00000000E+00  0.00000000E+00
  0.00000000E+00  0.00000000E+00  0.00000000E+00
  0.00000000E+00  0.00000000E+00  0.00000000E+00
  0.00000000E+00  0.00000000E+00  0.00000000E+00
  0.00000000E+00  0.00000000E+00  0.00000000E+00
  0.00000000E+00  0.00000000E+00  0.00000000E+00
  0.00000000E+00  0.00000000E+00  0.00000000E+00
  0.00000000E+00  0.00000000E+00  0.00000000E+00
  0.00000000E+00  0.00000000E+00  0.00000000E+00
  0.00000000E+00  0.00000000E+00  0.00000000E+00
  0.00000000E+00  0.00000000E+00  0.00000000E+00
  0.00000000E+00  0.00000000E+00  0.00000000E+00
  0.00000000E+00  0.00000000E+00  0.00000000E+00
  0.00000000E+00  0.00000000E+00  0.00000000E+00
  0.00000000E+00  0.00000000E+00  0.00000000E+00
  0.00000000E+00  0.00000000E+00  0.00000000E+00
  0.00000000E+00  0.00000000E+00  0.00000000E+00
  0.00000000E+00  0.00000000E+00  0.00000000E+00
  0.00000000E+00  0.00000000E+00  0.00000000E+00
  0.00000000E+00  0.00000000E+00  0.00000000E+00
  0.00000000E+00  0.00000000E+00  0.00000000E+00
  0.00000000E+00  0.00000000E+00  0.00000000E+00
  0.00000000E+00  0.00000000E+00  0.00000000E+00
  0.00000000E+00  0.00000000E+00  0.00000000E+00
  0.00000000E+00  0.00000000E+00  0.00000000E+00
  0.00000000E+00  0.00000000E+00  0.00000000E+00
  0.00000000E+00  0.00000000E+00  0.00000000E+00
  0.00000000E+00  0.00000000E+00  0.00000000E+00
  0.00000000E+00  0.00000000E+00  0.00000000E+00
  0.00000000E+00  0.00000000E+00  0.00000000E+00
  0.00000000E+00  0.00000000E+00  0.00000000E+00
  0.00000000E+00  0.00000000E+00  0.00000000E+00
  0.00000000E+00  0.00000000E+00  0.00000000E+00
  0.00000000E+00  0.00000000E+00  0.00000000E+00
  0.00000000E+00  0.00000000E+00  0.00000000E+00
  0.00000000E+00  0.00000000E+00  0.00000000E+00
  0.00000000E+00  0.00000000E+00  0.00000000E+00
  0.00000000E+00  0.00000000E+00  0.00000000E+00
  0.00000000E+00  0.00000000E+00  0.00000000E+00
  0.00000000E+00  0.00000000E+00  0.00000000E+00
  0.00000000E+00  0.00000000E+00  0.00000000E+00
  0.00000000E+00  0.00000000E+00  0.00000000E+00
  0.00000000E+00  0.00000000E+00  0.00000000E+00
  0.00000000E+00  0.00000000E+00  0.00000000E+00
  0.00000000E+00  0.00000000E+00  0.00000000E+00
  0.00000000E+00  0.00000000E+00  0.00000000E+00
  0.00000000E+00  0.00000000E+00  0.00000000E+00
  0.00000000E+00  0.00000000E+00  0.00000000E+00
  0.00000000E+00  0.00000000E+00  0.00000000E+00
  0.00000000E+00  0.00000000E+00  0.00000000E+00
  0.00000000E+00  0.00000000E+00  0.00000000E+00
  0.00000000E+00  0.00000000E+00  0.00000000E+00
  0.00000000E+00  0.00000000E+00  0.00000000E+00
  0.00000000E+00  0.00000000E+00  0.00000000E+00
  0.00000000E+00  0.00000000E+00  0.00000000E+00
  0.00000000E+00  0.00000000E+00  0.00000000E+00
  0.00000000E+00  0.00000000E+00  0.00000000E+00
  0.00000000E+00  0.00000000E+00  0.00000000E+00
  0.00000000E+00  0.00000000E+00  0.00000000E+00
  0.00000000E+00  0.00000000E+00  0.00000000E+00
  0.00000000E+00  0.00000000E+00  0.00000000E+00
  0.00000000E+00  0.00000000E+00  0.00000000E+00
  0.00000000E+00  0.00000000E+00  0.00000000E+00
  0.00000000E+00  0.00000000E+00  0.00000000E+00
  0.00000000E+00  0.00000000E+00  0.00000000E+00
  0.00000000E+00  0.00000000E+00  0.00000000E+00
  0.00000000E+00  0.00000000E+00  0.00000000E+00
  0.00000000E+00  0.00000000E+00  0.00000000E+00
  0.00000000E+00  0.00000000E+00  0.00000000E+00
  0.00000000E+00  0.00000000E+00  0.00000000E+00
  0.00000000E+00  0.00000000E+00  0.00000000E+00
  0.00000000E+00  0.00000000E+00  0.00000000E+00
  0.00000000E+00  0.00000000E+00  0.00000000E+00
  0.00000000E+00  0.00000000E+00  0.00000000E+00
  0.00000000E+00  0.00000000E+00  0.00000000E+00
  0.00000000E+00  0.00000000E+00  0.00000000E+00
  0.00000000E+00  0.00000000E+00  0.00000000E+00
  0.00000000E+00  0.00000000E+00  0.00000000E+00
  0.00000000E+00  0.00000000E+00  0.00000000E+00
  0.00000000E+00  0.00000000E+00  0.00000000E+00
  0.00000000E+00  0.00000000E+00  0.00000000E+00
  0.00000000E+00  0.00000000E+00  0.00000000E+00
  0.00000000E+00  0.00000000E+00  0.00000000E+00
  0.00000000E+00  0.00000000E+00  0.00000000E+00
  0.00000000E+00  0.00000000E+00  0.00000000E+00
  0.00000000E+00  0.00000000E+00  0.00000000E+00
  0.00000000E+00  0.00000000E+00  0.00000000E+00
  0.00000000E+00  0.00000000E+00  0.00000000E+00
