MoSSe_Se_up__WSSe_S_up - Twisted 60.0deg - ASE exact rotation
 1.0000000000000000
    15.9515798090000001    0.0000000000000000    0.0000000000000000
    -7.9757899045000000   13.8144733454999997    0.0000000000000000
     0.0000000000000000    0.0000000000000000   43.2483995566878505
 Mo  W   S   Se 
  25  25  50  50
Direct
  0.1333333999999979  0.0666665999999978  0.3826319668828461
  0.1333333999999979  0.2666666000000006  0.3826319668828461
  0.1333333999999979  0.4666666000000035  0.3826319668828461
  0.1333333999999980  0.6666665999999992  0.3826319668828461
  0.1333333999999979  0.8666666000000021  0.3826319668828461
  0.3333334000000008  0.0666665999999978  0.3826319668828461
  0.3333334000000008  0.2666666000000006  0.3826319668828461
  0.3333334000000008  0.4666666000000035  0.3826319668828461
  0.3333334000000008  0.6666665999999992  0.3826319668828461
  0.3333334000000008  0.8666666000000021  0.3826319668828461
  0.5333334000000036  0.0666665999999978  0.3826319668828461
  0.5333334000000036  0.2666666000000006  0.3826319668828461
  0.5333334000000036  0.4666666000000035  0.3826319668828461
  0.5333334000000036  0.6666665999999992  0.3826319668828461
  0.5333333999999965  0.8666666000000021  0.3826319668828461
  0.7333333999999994  0.0666665999999978  0.3826319668828461
  0.7333333999999994  0.2666666000000006  0.3826319668828461
  0.7333333999999994  0.4666666000000035  0.3826319668828461
  0.7333333999999994  0.6666665999999992  0.3826319668828461
  0.7333333999999994  0.8666666000000021  0.3826319668828461
  0.9333334000000023  0.0666665999999978  0.3826319668828461
  0.9333334000000023  0.2666666000000006  0.3826319668828461
  0.9333334000000023  0.4666666000000035  0.3826319668828461
  0.9333334000000023  0.6666665999999992  0.3826319668828461
  0.9333334000000023  0.8666666000000021  0.3826319668828461
  0.4444443333452367  0.0888888666736078  0.6171407943301038
  0.2444443333422583  0.0888888666765837  0.6171407943301038
  0.0444443333392797  0.0888888666795594  0.6171407943301038
 -0.1555556666636917  0.0888888666825351  0.6171407943301038
 -0.3555556666666703  0.0888888666855107  0.6171407943301038
  0.6444443333422638  0.2888888666676593  0.6171407943301038
  0.4444443333392853  0.2888888666706350  0.6171407943301038
  0.2444443333363068  0.2888888666736107  0.6171407943301038
  0.0444443333333354  0.2888888666765865  0.6171407943301038
 -0.1555556666696432  0.2888888666795622  0.6171407943301038
  0.8444443333392910  0.4888888666617108  0.6171407943301038
  0.6444443333363126  0.4888888666646865  0.6171407943301038
  0.4444443333333341  0.4888888666676622  0.6171407943301038
  0.2444443333303626  0.4888888666706380  0.6171407943301038
  0.0444443333273840  0.4888888666736136  0.6171407943301038
  1.0444443333363111  0.6888888666557552  0.6171407943301038
  0.8444443333333327  0.6888888666587309  0.6171407943301038
  0.6444443333303541  0.6888888666617067  0.6171407943301038
  0.4444443333273826  0.6888888666646823  0.6171407943301038
  0.2444443333244042  0.6888888666676580  0.6171407943301038
  1.2444443333333384  0.8888888666498065  0.6171407943301038
  1.0444443333303597  0.8888888666527822  0.6171407943301038
  0.8444443333273813  0.8888888666557579  0.6171407943301038
  0.6444443333244098  0.8888888666587337  0.6171407943301038
  0.4444443333214312  0.8888888666617093  0.6171407943301038
  0.0666665999999978  0.1333333999999979  0.3468336436435930
  0.0666665999999978  0.3333334000000008  0.3468336436435930
  0.0666665999999978  0.5333334000000036  0.3468336436435930
  0.0666665999999978  0.7333333999999994  0.3468336436435930
  0.0666665999999978  0.9333334000000022  0.3468336436435930
  0.2666666000000006  0.1333333999999979  0.3468336436435930
  0.2666666000000006  0.3333334000000008  0.3468336436435930
  0.2666666000000006  0.5333334000000036  0.3468336436435930
  0.2666666000000006  0.7333333999999994  0.3468336436435930
  0.2666666000000006  0.9333334000000022  0.3468336436435930
  0.4666666000000035  0.1333333999999979  0.3468336436435930
  0.4666666000000035  0.3333334000000008  0.3468336436435930
  0.4666666000000035  0.5333334000000036  0.3468336436435930
  0.4666666000000035  0.7333333999999994  0.3468336436435930
  0.4666666000000035  0.9333334000000022  0.3468336436435930
  0.6666665999999993  0.1333333999999979  0.3468336436435930
  0.6666665999999993  0.3333334000000008  0.3468336436435930
  0.6666665999999993  0.5333334000000036  0.3468336436435930
  0.6666665999999993  0.7333333999999994  0.3468336436435930
  0.6666665999999993  0.9333334000000022  0.3468336436435930
  0.8666666000000021  0.1333333999999979  0.3468336436435930
  0.8666666000000021  0.3333334000000008  0.3468336436435930
  0.8666666000000020  0.5333334000000036  0.3468336436435930
  0.8666666000000021  0.7333333999999994  0.3468336436435930
  0.8666666000000021  0.9333334000000022  0.3468336436435930
  0.5777779333452370  0.1555556666706323  0.6531663563564070
  0.3777779333422586  0.1555556666736080  0.6531663563564070
  0.1777779333392800  0.1555556666765838  0.6531663563564070
 -0.0222220666636915  0.1555556666795595  0.6531663563564070
 -0.2222220666666701  0.1555556666825352  0.6531663563564070
  0.7777779333422642  0.3555556666646838  0.6531663563564070
  0.5777779333392857  0.3555556666676595  0.6531663563564070
  0.3777779333363072  0.3555556666706353  0.6531663563564070
  0.1777779333333357  0.3555556666736110  0.6531663563564070
 -0.0222220666696428  0.3555556666765866  0.6531663563564070
  0.9777779333392914  0.5555556666587352  0.6531663563564070
  0.7777779333363128  0.5555556666617110  0.6531663563564070
  0.5777779333333344  0.5555556666646866  0.6531663563564070
  0.3777779333303629  0.5555556666676624  0.6531663563564070
  0.1777779333273772  0.5555556666706309  0.6531663563564070
  1.1777779333363114  0.7555556666527796  0.6531663563564070
  0.9777779333333330  0.7555556666557552  0.6531663563564070
  0.7777779333303544  0.7555556666587310  0.6531663563564070
  0.5777779333273829  0.7555556666617068  0.6531663563564070
  0.3777779333244045  0.7555556666646824  0.6531663563564070
  1.3777779333333386  0.9555556666468311  0.6531663563564070
  1.1777779333303602  0.9555556666498067  0.6531663563564070
  0.9777779333273815  0.9555556666527825  0.6531663563564070
  0.7777779333244101  0.9555556666557582  0.6531663563564070
  0.5777779333214316  0.9555556666587339  0.6531663563564070
  0.0666665999999978  0.1333333999999979  0.4225389375686882
  0.0666665999999978  0.3333334000000008  0.4225389375686882
  0.0666665999999978  0.5333334000000036  0.4225389375686882
  0.0666665999999978  0.7333333999999994  0.4225389375686882
  0.0666665999999978  0.9333334000000022  0.4225389375686882
  0.2666666000000006  0.1333333999999979  0.4225389375686882
  0.2666666000000006  0.3333334000000008  0.4225389375686882
  0.2666666000000006  0.5333334000000036  0.4225389375686882
  0.2666666000000006  0.7333333999999994  0.4225389375686882
  0.2666666000000006  0.9333334000000022  0.4225389375686882
  0.4666666000000035  0.1333333999999979  0.4225389375686882
  0.4666666000000035  0.3333334000000008  0.4225389375686882
  0.4666666000000035  0.5333334000000036  0.4225389375686882
  0.4666666000000035  0.7333333999999994  0.4225389375686882
  0.4666666000000035  0.9333334000000022  0.4225389375686882
  0.6666665999999993  0.1333333999999979  0.4225389375686882
  0.6666665999999993  0.3333334000000008  0.4225389375686882
  0.6666665999999993  0.5333334000000036  0.4225389375686882
  0.6666665999999993  0.7333333999999994  0.4225389375686882
  0.6666665999999993  0.9333334000000022  0.4225389375686882
  0.8666666000000021  0.1333333999999979  0.4225389375686882
  0.8666666000000021  0.3333334000000008  0.4225389375686882
  0.8666666000000020  0.5333334000000036  0.4225389375686882
  0.8666666000000021  0.7333333999999994  0.4225389375686882
  0.8666666000000021  0.9333334000000022  0.4225389375686882
  0.5777779333452370  0.1555556666706323  0.5770028874699620
  0.3777779333422586  0.1555556666736080  0.5770028874699620
  0.1777779333392800  0.1555556666765838  0.5770028874699620
 -0.0222220666636915  0.1555556666795595  0.5770028874699620
 -0.2222220666666701  0.1555556666825352  0.5770028874699620
  0.7777779333422642  0.3555556666646838  0.5770028874699620
  0.5777779333392857  0.3555556666676595  0.5770028874699620
  0.3777779333363072  0.3555556666706353  0.5770028874699620
  0.1777779333333357  0.3555556666736110  0.5770028874699620
 -0.0222220666696428  0.3555556666765866  0.5770028874699620
  0.9777779333392914  0.5555556666587352  0.5770028874699620
  0.7777779333363128  0.5555556666617110  0.5770028874699620
  0.5777779333333344  0.5555556666646866  0.5770028874699620
  0.3777779333303629  0.5555556666676624  0.5770028874699620
  0.1777779333273772  0.5555556666706309  0.5770028874699620
  1.1777779333363114  0.7555556666527796  0.5770028874699620
  0.9777779333333330  0.7555556666557552  0.5770028874699620
  0.7777779333303544  0.7555556666587310  0.5770028874699620
  0.5777779333273829  0.7555556666617068  0.5770028874699620
  0.3777779333244045  0.7555556666646824  0.5770028874699620
  1.3777779333333386  0.9555556666468311  0.5770028874699620
  1.1777779333303602  0.9555556666498067  0.5770028874699620
  0.9777779333273815  0.9555556666527825  0.5770028874699620
  0.7777779333244101  0.9555556666557582  0.5770028874699620
  0.5777779333214316  0.9555556666587339  0.5770028874699620
Cartesian
  0.0000000000000000  0.0000000000000000  0.0000000000000000
  0.0000000000000000  0.0000000000000000  0.0000000000000000
  0.0000000000000000  0.0000000000000000  0.0000000000000000
  0.0000000000000000  0.0000000000000000  0.0000000000000000
  0.0000000000000000  0.0000000000000000  0.0000000000000000
  0.0000000000000000  0.0000000000000000  0.0000000000000000
  0.0000000000000000  0.0000000000000000  0.0000000000000000
  0.0000000000000000  0.0000000000000000  0.0000000000000000
  0.0000000000000000  0.0000000000000000  0.0000000000000000
  0.0000000000000000  0.0000000000000000  0.0000000000000000
  0.0000000000000000  0.0000000000000000  0.0000000000000000
  0.0000000000000000  0.0000000000000000  0.0000000000000000
  0.0000000000000000  0.0000000000000000  0.0000000000000000
  0.0000000000000000  0.0000000000000000  0.0000000000000000
  0.0000000000000000  0.0000000000000000  0.0000000000000000
  0.0000000000000000  0.0000000000000000  0.0000000000000000
  0.0000000000000000  0.0000000000000000  0.0000000000000000
  0.0000000000000000  0.0000000000000000  0.0000000000000000
  0.0000000000000000  0.0000000000000000  0.0000000000000000
  0.0000000000000000  0.0000000000000000  0.0000000000000000
  0.0000000000000000  0.0000000000000000  0.0000000000000000
  0.0000000000000000  0.0000000000000000  0.0000000000000000
  0.0000000000000000  0.0000000000000000  0.0000000000000000
  0.0000000000000000  0.0000000000000000  0.0000000000000000
  0.0000000000000000  0.0000000000000000  0.0000000000000000
  0.0000000000000000  0.0000000000000000  0.0000000000000000
  0.0000000000000000  0.0000000000000000  0.0000000000000000
  0.0000000000000000  0.0000000000000000  0.0000000000000000
  0.0000000000000000  0.0000000000000000  0.0000000000000000
  0.0000000000000000  0.0000000000000000  0.0000000000000000
  0.0000000000000000  0.0000000000000000  0.0000000000000000
  0.0000000000000000  0.0000000000000000  0.0000000000000000
  0.0000000000000000  0.0000000000000000  0.0000000000000000
  0.0000000000000000  0.0000000000000000  0.0000000000000000
  0.0000000000000000  0.0000000000000000  0.0000000000000000
  0.0000000000000000  0.0000000000000000  0.0000000000000000
  0.0000000000000000  0.0000000000000000  0.0000000000000000
  0.0000000000000000  0.0000000000000000  0.0000000000000000
  0.0000000000000000  0.0000000000000000  0.0000000000000000
  0.0000000000000000  0.0000000000000000  0.0000000000000000
  0.0000000000000000  0.0000000000000000  0.0000000000000000
  0.0000000000000000  0.0000000000000000  0.0000000000000000
  0.0000000000000000  0.0000000000000000  0.0000000000000000
  0.0000000000000000  0.0000000000000000  0.0000000000000000
  0.0000000000000000  0.0000000000000000  0.0000000000000000
  0.0000000000000000  0.0000000000000000  0.0000000000000000
  0.0000000000000000  0.0000000000000000  0.0000000000000000
  0.0000000000000000  0.0000000000000000  0.0000000000000000
  0.0000000000000000  0.0000000000000000  0.0000000000000000
  0.0000000000000000  0.0000000000000000  0.0000000000000000
  0.0000000000000000  0.0000000000000000  0.0000000000000000
  0.0000000000000000  0.0000000000000000  0.0000000000000000
  0.0000000000000000  0.0000000000000000  0.0000000000000000
  0.0000000000000000  0.0000000000000000  0.0000000000000000
  0.0000000000000000  0.0000000000000000  0.0000000000000000
  0.0000000000000000  0.0000000000000000  0.0000000000000000
  0.0000000000000000  0.0000000000000000  0.0000000000000000
  0.0000000000000000  0.0000000000000000  0.0000000000000000
  0.0000000000000000  0.0000000000000000  0.0000000000000000
  0.0000000000000000  0.0000000000000000  0.0000000000000000
  0.0000000000000000  0.0000000000000000  0.0000000000000000
  0.0000000000000000  0.0000000000000000  0.0000000000000000
  0.0000000000000000  0.0000000000000000  0.0000000000000000
  0.0000000000000000  0.0000000000000000  0.0000000000000000
  0.0000000000000000  0.0000000000000000  0.0000000000000000
  0.0000000000000000  0.0000000000000000  0.0000000000000000
  0.0000000000000000  0.0000000000000000  0.0000000000000000
  0.0000000000000000  0.0000000000000000  0.0000000000000000
  0.0000000000000000  0.0000000000000000  0.0000000000000000
  0.0000000000000000  0.0000000000000000  0.0000000000000000
  0.0000000000000000  0.0000000000000000  0.0000000000000000
  0.0000000000000000  0.0000000000000000  0.0000000000000000
  0.0000000000000000  0.0000000000000000  0.0000000000000000
  0.0000000000000000  0.0000000000000000  0.0000000000000000
  0.0000000000000000  0.0000000000000000  0.0000000000000000
  0.0000000000000000  0.0000000000000000  0.0000000000000000
  0.0000000000000000  0.0000000000000000  0.0000000000000000
  0.0000000000000000  0.0000000000000000  0.0000000000000000
  0.0000000000000000  0.0000000000000000  0.0000000000000000
  0.0000000000000000  0.0000000000000000  0.0000000000000000
  0.0000000000000000  0.0000000000000000  0.0000000000000000
  0.0000000000000000  0.0000000000000000  0.0000000000000000
  0.0000000000000000  0.0000000000000000  0.0000000000000000
  0.0000000000000000  0.0000000000000000  0.0000000000000000
  0.0000000000000000  0.0000000000000000  0.0000000000000000
  0.0000000000000000  0.0000000000000000  0.0000000000000000
  0.0000000000000000  0.0000000000000000  0.0000000000000000
  0.0000000000000000  0.0000000000000000  0.0000000000000000
  0.0000000000000000  0.0000000000000000  0.0000000000000000
  0.0000000000000000  0.0000000000000000  0.0000000000000000
  0.0000000000000000  0.0000000000000000  0.0000000000000000
  0.0000000000000000  0.0000000000000000  0.0000000000000000
  0.0000000000000000  0.0000000000000000  0.0000000000000000
  0.0000000000000000  0.0000000000000000  0.0000000000000000
  0.0000000000000000  0.0000000000000000  0.0000000000000000
  0.0000000000000000  0.0000000000000000  0.0000000000000000
  0.0000000000000000  0.0000000000000000  0.0000000000000000
  0.0000000000000000  0.0000000000000000  0.0000000000000000
  0.0000000000000000  0.0000000000000000  0.0000000000000000
  0.0000000000000000  0.0000000000000000  0.0000000000000000
  0.0000000000000000  0.0000000000000000  0.0000000000000000
  0.0000000000000000  0.0000000000000000  0.0000000000000000
  0.0000000000000000  0.0000000000000000  0.0000000000000000
  0.0000000000000000  0.0000000000000000  0.0000000000000000
  0.0000000000000000  0.0000000000000000  0.0000000000000000
  0.0000000000000000  0.0000000000000000  0.0000000000000000
  0.0000000000000000  0.0000000000000000  0.0000000000000000
  0.0000000000000000  0.0000000000000000  0.0000000000000000
  0.0000000000000000  0.0000000000000000  0.0000000000000000
  0.0000000000000000  0.0000000000000000  0.0000000000000000
  0.0000000000000000  0.0000000000000000  0.0000000000000000
  0.0000000000000000  0.0000000000000000  0.0000000000000000
  0.0000000000000000  0.0000000000000000  0.0000000000000000
  0.0000000000000000  0.0000000000000000  0.0000000000000000
  0.0000000000000000  0.0000000000000000  0.0000000000000000
  0.0000000000000000  0.0000000000000000  0.0000000000000000
  0.0000000000000000  0.0000000000000000  0.0000000000000000
  0.0000000000000000  0.0000000000000000  0.0000000000000000
  0.0000000000000000  0.0000000000000000  0.0000000000000000
  0.0000000000000000  0.0000000000000000  0.0000000000000000
  0.0000000000000000  0.0000000000000000  0.0000000000000000
  0.0000000000000000  0.0000000000000000  0.0000000000000000
  0.0000000000000000  0.0000000000000000  0.0000000000000000
  0.0000000000000000  0.0000000000000000  0.0000000000000000
  0.0000000000000000  0.0000000000000000  0.0000000000000000
  0.0000000000000000  0.0000000000000000  0.0000000000000000
  0.0000000000000000  0.0000000000000000  0.0000000000000000
  0.0000000000000000  0.0000000000000000  0.0000000000000000
  0.0000000000000000  0.0000000000000000  0.0000000000000000
  0.0000000000000000  0.0000000000000000  0.0000000000000000
  0.0000000000000000  0.0000000000000000  0.0000000000000000
  0.0000000000000000  0.0000000000000000  0.0000000000000000
  0.0000000000000000  0.0000000000000000  0.0000000000000000
  0.0000000000000000  0.0000000000000000  0.0000000000000000
  0.0000000000000000  0.0000000000000000  0.0000000000000000
  0.0000000000000000  0.0000000000000000  0.0000000000000000
  0.0000000000000000  0.0000000000000000  0.0000000000000000
  0.0000000000000000  0.0000000000000000  0.0000000000000000
  0.0000000000000000  0.0000000000000000  0.0000000000000000
  0.0000000000000000  0.0000000000000000  0.0000000000000000
  0.0000000000000000  0.0000000000000000  0.0000000000000000
  0.0000000000000000  0.0000000000000000  0.0000000000000000
  0.0000000000000000  0.0000000000000000  0.0000000000000000
  0.0000000000000000  0.0000000000000000  0.0000000000000000
  0.0000000000000000  0.0000000000000000  0.0000000000000000
  0.0000000000000000  0.0000000000000000  0.0000000000000000
  0.0000000000000000  0.0000000000000000  0.0000000000000000
  0.0000000000000000  0.0000000000000000  0.0000000000000000
  0.0000000000000000  0.0000000000000000  0.0000000000000000
  0.0000000000000000  0.0000000000000000  0.0000000000000000
