MoSSe_Se_up__WSSe_S_up - Twisted 30.0deg - ASE exact rotation
 1.0000000000000000
    15.9515798090000001    0.0000000000000000    0.0000000000000000
    -7.9757899045000000   13.8144733454999997    0.0000000000000000
     0.0000000000000000    0.0000000000000000   43.2483995566878505
 Mo  W   S   Se 
  25  25  50  50
Direct
  0.1333333999999979  0.0666665999999978  0.3826319668828461
  0.1333333999999979  0.2666666000000006  0.3826319668828461
  0.1333333999999979  0.4666666000000035  0.3826319668828461
  0.1333333999999980  0.6666665999999992  0.3826319668828461
  0.1333333999999979  0.8666666000000021  0.3826319668828461
  0.3333334000000008  0.0666665999999978  0.3826319668828461
  0.3333334000000008  0.2666666000000006  0.3826319668828461
  0.3333334000000008  0.4666666000000035  0.3826319668828461
  0.3333334000000008  0.6666665999999992  0.3826319668828461
  0.3333334000000008  0.8666666000000021  0.3826319668828461
  0.5333334000000036  0.0666665999999978  0.3826319668828461
  0.5333334000000036  0.2666666000000006  0.3826319668828461
  0.5333334000000036  0.4666666000000035  0.3826319668828461
  0.5333334000000036  0.6666665999999992  0.3826319668828461
  0.5333333999999965  0.8666666000000021  0.3826319668828461
  0.7333333999999994  0.0666665999999978  0.3826319668828461
  0.7333333999999994  0.2666666000000006  0.3826319668828461
  0.7333333999999994  0.4666666000000035  0.3826319668828461
  0.7333333999999994  0.6666665999999992  0.3826319668828461
  0.7333333999999994  0.8666666000000021  0.3826319668828461
  0.9333334000000023  0.0666665999999978  0.3826319668828461
  0.9333334000000023  0.2666666000000006  0.3826319668828461
  0.9333334000000023  0.4666666000000035  0.3826319668828461
  0.9333334000000023  0.6666665999999992  0.3826319668828461
  0.9333334000000023  0.8666666000000021  0.3826319668828461
  0.2194586640716765  0.0492309179856389  0.6171407943301038
  0.1039886102320317  0.1647009718252838  0.6171407943301038
 -0.0114814436076131  0.2801710256649286  0.6171407943301038
 -0.1269514974472538  0.3956410795045694  0.6171407943301038
 -0.2424215512868985  0.5111111333442142  0.6171407943301038
  0.4503987717458120  0.1647009718201297  0.6171407943301038
  0.3349287179061672  0.2801710256597745  0.6171407943301038
  0.2194586640665224  0.3956410794994193  0.6171407943301038
  0.1039886102268818  0.5111111333390601  0.6171407943301038
 -0.0114814436127632  0.6265811871787048  0.6171407943301038
  0.6813388794199476  0.2801710256546204  0.6171407943301038
  0.5658688255803027  0.3956410794942652  0.6171407943301038
  0.4503987717406581  0.5111111333339101  0.6171407943301038
  0.3349287179010173  0.6265811871735508  0.6171407943301038
  0.2194586640613725  0.7420512410131956  0.6171407943301038
  0.9122789870940752  0.3956410794891071  0.6171407943301038
  0.7968089332544303  0.5111111333287519  0.6171407943301038
  0.6813388794147855  0.6265811871683968  0.6171407943301038
  0.5658688255751448  0.7420512410080374  0.6171407943301038
  0.4503987717355000  0.8575212948476822  0.6171407943301038
  1.1432190947682104  0.5111111333235977  0.6171407943301038
  1.0277490409285659  0.6265811871632426  0.6171407943301038
  0.9122789870889210  0.7420512410028874  0.6171407943301038
  0.7968089332492804  0.8575212948425283  0.6171407943301038
  0.6813388794096356  0.9729913486821731  0.6171407943301038
  0.0666665999999978  0.1333333999999979  0.3468336436435930
  0.0666665999999978  0.3333334000000008  0.3468336436435930
  0.0666665999999978  0.5333334000000036  0.3468336436435930
  0.0666665999999978  0.7333333999999994  0.3468336436435930
  0.0666665999999978  0.9333334000000022  0.3468336436435930
  0.2666666000000006  0.1333333999999979  0.3468336436435930
  0.2666666000000006  0.3333334000000008  0.3468336436435930
  0.2666666000000006  0.5333334000000036  0.3468336436435930
  0.2666666000000006  0.7333333999999994  0.3468336436435930
  0.2666666000000006  0.9333334000000022  0.3468336436435930
  0.4666666000000035  0.1333333999999979  0.3468336436435930
  0.4666666000000035  0.3333334000000008  0.3468336436435930
  0.4666666000000035  0.5333334000000036  0.3468336436435930
  0.4666666000000035  0.7333333999999994  0.3468336436435930
  0.4666666000000035  0.9333334000000022  0.3468336436435930
  0.6666665999999993  0.1333333999999979  0.3468336436435930
  0.6666665999999993  0.3333334000000008  0.3468336436435930
  0.6666665999999993  0.5333334000000036  0.3468336436435930
  0.6666665999999993  0.7333333999999994  0.3468336436435930
  0.6666665999999993  0.9333334000000022  0.3468336436435930
  0.8666666000000021  0.1333333999999979  0.3468336436435930
  0.8666666000000021  0.3333334000000008  0.3468336436435930
  0.8666666000000020  0.5333334000000036  0.3468336436435930
  0.8666666000000021  0.7333333999999994  0.3468336436435930
  0.8666666000000021  0.9333334000000022  0.3468336436435930
  0.3349289488497095  0.0492309179839209  0.6531663563564070
  0.2194588950100648  0.1647009718235657  0.6531663563564070
  0.1039888411704199  0.2801710256632106  0.6531663563564070
 -0.0114812126692208  0.3956410795028513  0.6531663563564070
 -0.1269512665088656  0.5111111333424961  0.6531663563564070
  0.5658690565238452  0.1647009718184117  0.6531663563564070
  0.4503990026842004  0.2801710256580565  0.6531663563564070
  0.3349289488445555  0.3956410794977013  0.6531663563564070
  0.2194588950049149  0.5111111333373421  0.6531663563564070
  0.1039888411652701  0.6265811871769869  0.6531663563564070
  0.7968091641979808  0.2801710256529024  0.6531663563564070
  0.6813391103583359  0.3956410794925472  0.6531663563564070
  0.5658690565186911  0.5111111333321920  0.6531663563564070
  0.4503990026790504  0.6265811871718329  0.6531663563564070
  0.3349289488393974  0.7420512410114736  0.6531663563564070
  1.0277492718721082  0.3956410794873890  0.6531663563564070
  0.9122792180324634  0.5111111333270338  0.6531663563564070
  0.7968091641928184  0.6265811871666787  0.6531663563564070
  0.6813391103531777  0.7420512410063195  0.6531663563564070
  0.5658690565135329  0.8575212948459643  0.6531663563564070
  1.2586893795462437  0.5111111333218799  0.6531663563564070
  1.1432193257065988  0.6265811871615246  0.6531663563564070
  1.0277492718669541  0.7420512410011694  0.6531663563564070
  0.9122792180273133  0.8575212948408102  0.6531663563564070
  0.7968091641876686  0.9729913486804550  0.6531663563564070
  0.0666665999999978  0.1333333999999979  0.4225389375686882
  0.0666665999999978  0.3333334000000008  0.4225389375686882
  0.0666665999999978  0.5333334000000036  0.4225389375686882
  0.0666665999999978  0.7333333999999994  0.4225389375686882
  0.0666665999999978  0.9333334000000022  0.4225389375686882
  0.2666666000000006  0.1333333999999979  0.4225389375686882
  0.2666666000000006  0.3333334000000008  0.4225389375686882
  0.2666666000000006  0.5333334000000036  0.4225389375686882
  0.2666666000000006  0.7333333999999994  0.4225389375686882
  0.2666666000000006  0.9333334000000022  0.4225389375686882
  0.4666666000000035  0.1333333999999979  0.4225389375686882
  0.4666666000000035  0.3333334000000008  0.4225389375686882
  0.4666666000000035  0.5333334000000036  0.4225389375686882
  0.4666666000000035  0.7333333999999994  0.4225389375686882
  0.4666666000000035  0.9333334000000022  0.4225389375686882
  0.6666665999999993  0.1333333999999979  0.4225389375686882
  0.6666665999999993  0.3333334000000008  0.4225389375686882
  0.6666665999999993  0.5333334000000036  0.4225389375686882
  0.6666665999999993  0.7333333999999994  0.4225389375686882
  0.6666665999999993  0.9333334000000022  0.4225389375686882
  0.8666666000000021  0.1333333999999979  0.4225389375686882
  0.8666666000000021  0.3333334000000008  0.4225389375686882
  0.8666666000000020  0.5333334000000036  0.4225389375686882
  0.8666666000000021  0.7333333999999994  0.4225389375686882
  0.8666666000000021  0.9333334000000022  0.4225389375686882
  0.3349289488497095  0.0492309179839209  0.5770028874699620
  0.2194588950100648  0.1647009718235657  0.5770028874699620
  0.1039888411704199  0.2801710256632106  0.5770028874699620
 -0.0114812126692208  0.3956410795028513  0.5770028874699620
 -0.1269512665088656  0.5111111333424961  0.5770028874699620
  0.5658690565238452  0.1647009718184117  0.5770028874699620
  0.4503990026842004  0.2801710256580565  0.5770028874699620
  0.3349289488445555  0.3956410794977013  0.5770028874699620
  0.2194588950049149  0.5111111333373421  0.5770028874699620
  0.1039888411652701  0.6265811871769869  0.5770028874699620
  0.7968091641979808  0.2801710256529024  0.5770028874699620
  0.6813391103583359  0.3956410794925472  0.5770028874699620
  0.5658690565186911  0.5111111333321920  0.5770028874699620
  0.4503990026790504  0.6265811871718329  0.5770028874699620
  0.3349289488393974  0.7420512410114736  0.5770028874699620
  1.0277492718721082  0.3956410794873890  0.5770028874699620
  0.9122792180324634  0.5111111333270338  0.5770028874699620
  0.7968091641928184  0.6265811871666787  0.5770028874699620
  0.6813391103531777  0.7420512410063195  0.5770028874699620
  0.5658690565135329  0.8575212948459643  0.5770028874699620
  1.2586893795462437  0.5111111333218799  0.5770028874699620
  1.1432193257065988  0.6265811871615246  0.5770028874699620
  1.0277492718669541  0.7420512410011694  0.5770028874699620
  0.9122792180273133  0.8575212948408102  0.5770028874699620
  0.7968091641876686  0.9729913486804550  0.5770028874699620
Cartesian
  0.0000000000000000  0.0000000000000000  0.0000000000000000
  0.0000000000000000  0.0000000000000000  0.0000000000000000
  0.0000000000000000  0.0000000000000000  0.0000000000000000
  0.0000000000000000  0.0000000000000000  0.0000000000000000
  0.0000000000000000  0.0000000000000000  0.0000000000000000
  0.0000000000000000  0.0000000000000000  0.0000000000000000
  0.0000000000000000  0.0000000000000000  0.0000000000000000
  0.0000000000000000  0.0000000000000000  0.0000000000000000
  0.0000000000000000  0.0000000000000000  0.0000000000000000
  0.0000000000000000  0.0000000000000000  0.0000000000000000
  0.0000000000000000  0.0000000000000000  0.0000000000000000
  0.0000000000000000  0.0000000000000000  0.0000000000000000
  0.0000000000000000  0.0000000000000000  0.0000000000000000
  0.0000000000000000  0.0000000000000000  0.0000000000000000
  0.0000000000000000  0.0000000000000000  0.0000000000000000
  0.0000000000000000  0.0000000000000000  0.0000000000000000
  0.0000000000000000  0.0000000000000000  0.0000000000000000
  0.0000000000000000  0.0000000000000000  0.0000000000000000
  0.0000000000000000  0.0000000000000000  0.0000000000000000
  0.0000000000000000  0.0000000000000000  0.0000000000000000
  0.0000000000000000  0.0000000000000000  0.0000000000000000
  0.0000000000000000  0.0000000000000000  0.0000000000000000
  0.0000000000000000  0.0000000000000000  0.0000000000000000
  0.0000000000000000  0.0000000000000000  0.0000000000000000
  0.0000000000000000  0.0000000000000000  0.0000000000000000
  0.0000000000000000  0.0000000000000000  0.0000000000000000
  0.0000000000000000  0.0000000000000000  0.0000000000000000
  0.0000000000000000  0.0000000000000000  0.0000000000000000
  0.0000000000000000  0.0000000000000000  0.0000000000000000
  0.0000000000000000  0.0000000000000000  0.0000000000000000
  0.0000000000000000  0.0000000000000000  0.0000000000000000
  0.0000000000000000  0.0000000000000000  0.0000000000000000
  0.0000000000000000  0.0000000000000000  0.0000000000000000
  0.0000000000000000  0.0000000000000000  0.0000000000000000
  0.0000000000000000  0.0000000000000000  0.0000000000000000
  0.0000000000000000  0.0000000000000000  0.0000000000000000
  0.0000000000000000  0.0000000000000000  0.0000000000000000
  0.0000000000000000  0.0000000000000000  0.0000000000000000
  0.0000000000000000  0.0000000000000000  0.0000000000000000
  0.0000000000000000  0.0000000000000000  0.0000000000000000
  0.0000000000000000  0.0000000000000000  0.0000000000000000
  0.0000000000000000  0.0000000000000000  0.0000000000000000
  0.0000000000000000  0.0000000000000000  0.0000000000000000
  0.0000000000000000  0.0000000000000000  0.0000000000000000
  0.0000000000000000  0.0000000000000000  0.0000000000000000
  0.0000000000000000  0.0000000000000000  0.0000000000000000
  0.0000000000000000  0.0000000000000000  0.0000000000000000
  0.0000000000000000  0.0000000000000000  0.0000000000000000
  0.0000000000000000  0.0000000000000000  0.0000000000000000
  0.0000000000000000  0.0000000000000000  0.0000000000000000
  0.0000000000000000  0.0000000000000000  0.0000000000000000
  0.0000000000000000  0.0000000000000000  0.0000000000000000
  0.0000000000000000  0.0000000000000000  0.0000000000000000
  0.0000000000000000  0.0000000000000000  0.0000000000000000
  0.0000000000000000  0.0000000000000000  0.0000000000000000
  0.0000000000000000  0.0000000000000000  0.0000000000000000
  0.0000000000000000  0.0000000000000000  0.0000000000000000
  0.0000000000000000  0.0000000000000000  0.0000000000000000
  0.0000000000000000  0.0000000000000000  0.0000000000000000
  0.0000000000000000  0.0000000000000000  0.0000000000000000
  0.0000000000000000  0.0000000000000000  0.0000000000000000
  0.0000000000000000  0.0000000000000000  0.0000000000000000
  0.0000000000000000  0.0000000000000000  0.0000000000000000
  0.0000000000000000  0.0000000000000000  0.0000000000000000
  0.0000000000000000  0.0000000000000000  0.0000000000000000
  0.0000000000000000  0.0000000000000000  0.0000000000000000
  0.0000000000000000  0.0000000000000000  0.0000000000000000
  0.0000000000000000  0.0000000000000000  0.0000000000000000
  0.0000000000000000  0.0000000000000000  0.0000000000000000
  0.0000000000000000  0.0000000000000000  0.0000000000000000
  0.0000000000000000  0.0000000000000000  0.0000000000000000
  0.0000000000000000  0.0000000000000000  0.0000000000000000
  0.0000000000000000  0.0000000000000000  0.0000000000000000
  0.0000000000000000  0.0000000000000000  0.0000000000000000
  0.0000000000000000  0.0000000000000000  0.0000000000000000
  0.0000000000000000  0.0000000000000000  0.0000000000000000
  0.0000000000000000  0.0000000000000000  0.0000000000000000
  0.0000000000000000  0.0000000000000000  0.0000000000000000
  0.0000000000000000  0.0000000000000000  0.0000000000000000
  0.0000000000000000  0.0000000000000000  0.0000000000000000
  0.0000000000000000  0.0000000000000000  0.0000000000000000
  0.0000000000000000  0.0000000000000000  0.0000000000000000
  0.0000000000000000  0.0000000000000000  0.0000000000000000
  0.0000000000000000  0.0000000000000000  0.0000000000000000
  0.0000000000000000  0.0000000000000000  0.0000000000000000
  0.0000000000000000  0.0000000000000000  0.0000000000000000
  0.0000000000000000  0.0000000000000000  0.0000000000000000
  0.0000000000000000  0.0000000000000000  0.0000000000000000
  0.0000000000000000  0.0000000000000000  0.0000000000000000
  0.0000000000000000  0.0000000000000000  0.0000000000000000
  0.0000000000000000  0.0000000000000000  0.0000000000000000
  0.0000000000000000  0.0000000000000000  0.0000000000000000
  0.0000000000000000  0.0000000000000000  0.0000000000000000
  0.0000000000000000  0.0000000000000000  0.0000000000000000
  0.0000000000000000  0.0000000000000000  0.0000000000000000
  0.0000000000000000  0.0000000000000000  0.0000000000000000
  0.0000000000000000  0.0000000000000000  0.0000000000000000
  0.0000000000000000  0.0000000000000000  0.0000000000000000
  0.0000000000000000  0.0000000000000000  0.0000000000000000
  0.0000000000000000  0.0000000000000000  0.0000000000000000
  0.0000000000000000  0.0000000000000000  0.0000000000000000
  0.0000000000000000  0.0000000000000000  0.0000000000000000
  0.0000000000000000  0.0000000000000000  0.0000000000000000
  0.0000000000000000  0.0000000000000000  0.0000000000000000
  0.0000000000000000  0.0000000000000000  0.0000000000000000
  0.0000000000000000  0.0000000000000000  0.0000000000000000
  0.0000000000000000  0.0000000000000000  0.0000000000000000
  0.0000000000000000  0.0000000000000000  0.0000000000000000
  0.0000000000000000  0.0000000000000000  0.0000000000000000
  0.0000000000000000  0.0000000000000000  0.0000000000000000
  0.0000000000000000  0.0000000000000000  0.0000000000000000
  0.0000000000000000  0.0000000000000000  0.0000000000000000
  0.0000000000000000  0.0000000000000000  0.0000000000000000
  0.0000000000000000  0.0000000000000000  0.0000000000000000
  0.0000000000000000  0.0000000000000000  0.0000000000000000
  0.0000000000000000  0.0000000000000000  0.0000000000000000
  0.0000000000000000  0.0000000000000000  0.0000000000000000
  0.0000000000000000  0.0000000000000000  0.0000000000000000
  0.0000000000000000  0.0000000000000000  0.0000000000000000
  0.0000000000000000  0.0000000000000000  0.0000000000000000
  0.0000000000000000  0.0000000000000000  0.0000000000000000
  0.0000000000000000  0.0000000000000000  0.0000000000000000
  0.0000000000000000  0.0000000000000000  0.0000000000000000
  0.0000000000000000  0.0000000000000000  0.0000000000000000
  0.0000000000000000  0.0000000000000000  0.0000000000000000
  0.0000000000000000  0.0000000000000000  0.0000000000000000
  0.0000000000000000  0.0000000000000000  0.0000000000000000
  0.0000000000000000  0.0000000000000000  0.0000000000000000
  0.0000000000000000  0.0000000000000000  0.0000000000000000
  0.0000000000000000  0.0000000000000000  0.0000000000000000
  0.0000000000000000  0.0000000000000000  0.0000000000000000
  0.0000000000000000  0.0000000000000000  0.0000000000000000
  0.0000000000000000  0.0000000000000000  0.0000000000000000
  0.0000000000000000  0.0000000000000000  0.0000000000000000
  0.0000000000000000  0.0000000000000000  0.0000000000000000
  0.0000000000000000  0.0000000000000000  0.0000000000000000
  0.0000000000000000  0.0000000000000000  0.0000000000000000
  0.0000000000000000  0.0000000000000000  0.0000000000000000
  0.0000000000000000  0.0000000000000000  0.0000000000000000
  0.0000000000000000  0.0000000000000000  0.0000000000000000
  0.0000000000000000  0.0000000000000000  0.0000000000000000
  0.0000000000000000  0.0000000000000000  0.0000000000000000
  0.0000000000000000  0.0000000000000000  0.0000000000000000
  0.0000000000000000  0.0000000000000000  0.0000000000000000
  0.0000000000000000  0.0000000000000000  0.0000000000000000
  0.0000000000000000  0.0000000000000000  0.0000000000000000
  0.0000000000000000  0.0000000000000000  0.0000000000000000
  0.0000000000000000  0.0000000000000000  0.0000000000000000
  0.0000000000000000  0.0000000000000000  0.0000000000000000
  0.0000000000000000  0.0000000000000000  0.0000000000000000
