MoSSe_Se_up__WSSe_S_up - Twisted 15.0deg - ASE exact rotation
 1.0000000000000000
    15.9515798090000001    0.0000000000000000    0.0000000000000000
    -7.9757899045000000   13.8144733454999997    0.0000000000000000
     0.0000000000000000    0.0000000000000000   43.2483995566878505
 Mo  W   S   Se 
  25  25  50  50
Direct
  0.1333333999999979  0.0666665999999978  0.3826319668828461
  0.1333333999999979  0.2666666000000006  0.3826319668828461
  0.1333333999999979  0.4666666000000035  0.3826319668828461
  0.1333333999999980  0.6666665999999992  0.3826319668828461
  0.1333333999999979  0.8666666000000021  0.3826319668828461
  0.3333334000000008  0.0666665999999978  0.3826319668828461
  0.3333334000000008  0.2666666000000006  0.3826319668828461
  0.3333334000000008  0.4666666000000035  0.3826319668828461
  0.3333334000000008  0.6666665999999992  0.3826319668828461
  0.3333334000000008  0.8666666000000021  0.3826319668828461
  0.5333334000000036  0.0666665999999978  0.3826319668828461
  0.5333334000000036  0.2666666000000006  0.3826319668828461
  0.5333334000000036  0.4666666000000035  0.3826319668828461
  0.5333334000000036  0.6666665999999992  0.3826319668828461
  0.5333333999999965  0.8666666000000021  0.3826319668828461
  0.7333333999999994  0.0666665999999978  0.3826319668828461
  0.7333333999999994  0.2666666000000006  0.3826319668828461
  0.7333333999999994  0.4666666000000035  0.3826319668828461
  0.7333333999999994  0.6666665999999992  0.3826319668828461
  0.7333333999999994  0.8666666000000021  0.3826319668828461
  0.9333334000000023  0.0666665999999978  0.3826319668828461
  0.9333334000000023  0.2666666000000006  0.3826319668828461
  0.9333334000000023  0.4666666000000035  0.3826319668828461
  0.9333334000000023  0.6666665999999992  0.3826319668828461
  0.9333334000000023  0.8666666000000021  0.3826319668828461
  0.1308632033924602  0.0764721963526022  0.6171407943301038
  0.0710915052470332  0.2397715125390391  0.6171407943301038
  0.0113198071016062  0.4030708287254760  0.6171407943301038
 -0.0484518910438188  0.5663701449119071  0.6171407943301038
 -0.1082235891892458  0.7296694610983439  0.6171407943301038
  0.3539342177216562  0.1362438944953613  0.6171407943301038
  0.2941625195762291  0.2995432106817982  0.6171407943301038
  0.2343908214308021  0.4628425268682351  0.6171407943301038
  0.1746191232853771  0.6261418430546660  0.6171407943301038
  0.1148474251399500  0.7894411592411029  0.6171407943301038
  0.5770052320508523  0.1960155926381205  0.6171407943301038
  0.5172335339054251  0.3593149088245574  0.6171407943301038
  0.4574618357599981  0.5226142250109942  0.6171407943301038
  0.3976901376145732  0.6859135411974253  0.6171407943301038
  0.3379184394691461  0.8492128573838621  0.6171407943301038
  0.8000762463800404  0.2557872907808775  0.6171407943301038
  0.7403045482346133  0.4190866069673144  0.6171407943301038
  0.6805328500891862  0.5823859231537512  0.6171407943301038
  0.6207611519437612  0.7456852393401823  0.6171407943301038
  0.5609894537983343  0.9089845555266191  0.6171407943301038
  1.0231472607092365  0.3155589889236366  0.6171407943301038
  0.9633755625638092  0.4788583051100734  0.6171407943301038
  0.9036038644183821  0.6421576212965103  0.6171407943301038
  0.8438321662729572  0.8054569374829414  0.6171407943301038
  0.7840604681275301  0.9687562536693781  0.6171407943301038
  0.0666665999999978  0.1333333999999979  0.3468336436435930
  0.0666665999999978  0.3333334000000008  0.3468336436435930
  0.0666665999999978  0.5333334000000036  0.3468336436435930
  0.0666665999999978  0.7333333999999994  0.3468336436435930
  0.0666665999999978  0.9333334000000022  0.3468336436435930
  0.2666666000000006  0.1333333999999979  0.3468336436435930
  0.2666666000000006  0.3333334000000008  0.3468336436435930
  0.2666666000000006  0.5333334000000036  0.3468336436435930
  0.2666666000000006  0.7333333999999994  0.3468336436435930
  0.2666666000000006  0.9333334000000022  0.3468336436435930
  0.4666666000000035  0.1333333999999979  0.3468336436435930
  0.4666666000000035  0.3333334000000008  0.3468336436435930
  0.4666666000000035  0.5333334000000036  0.3468336436435930
  0.4666666000000035  0.7333333999999994  0.3468336436435930
  0.4666666000000035  0.9333334000000022  0.3468336436435930
  0.6666665999999993  0.1333333999999979  0.3468336436435930
  0.6666665999999993  0.3333334000000008  0.3468336436435930
  0.6666665999999993  0.5333334000000036  0.3468336436435930
  0.6666665999999993  0.7333333999999994  0.3468336436435930
  0.6666665999999993  0.9333334000000022  0.3468336436435930
  0.8666666000000021  0.1333333999999979  0.3468336436435930
  0.8666666000000021  0.3333334000000008  0.3468336436435930
  0.8666666000000020  0.5333334000000036  0.3468336436435930
  0.8666666000000021  0.7333333999999994  0.3468336436435930
  0.8666666000000021  0.9333334000000022  0.3468336436435930
  0.2251442961124751  0.0419629213196314  0.6531663563564070
  0.1653725979670481  0.2052622375060683  0.6531663563564070
  0.1056008998216209  0.3685615536925051  0.6531663563564070
  0.0458292016761961  0.5318608698789362  0.6531663563564070
 -0.0139424964692310  0.6951601860653730  0.6531663563564070
  0.4482153104416711  0.1017346194623906  0.6531663563564070
  0.3884436122962441  0.2650339356488274  0.6531663563564070
  0.3286719141508170  0.4283332518352642  0.6531663563564070
  0.2689002160053921  0.5916325680216953  0.6531663563564070
  0.2091285178599649  0.7549318842081321  0.6531663563564070
  0.6712863247708671  0.1615063176051497  0.6531663563564070
  0.6115146266254401  0.3248056337915865  0.6531663563564070
  0.5517429284800129  0.4881049499780233  0.6531663563564070
  0.4919712303345881  0.6514042661644545  0.6531663563564070
  0.4321995321891530  0.8147035823508891  0.6531663563564070
  0.8943573391000553  0.2212780157479067  0.6531663563564070
  0.8345856409546281  0.3845773319343435  0.6531663563564070
  0.7748139428092010  0.5478766481207804  0.6531663563564070
  0.7150422446637761  0.7111759643072114  0.6531663563564070
  0.6552705465183490  0.8744752804936482  0.6531663563564070
  1.1174283534292513  0.2810497138906659  0.6531663563564070
  1.0576566552838240  0.4443490300771026  0.6531663563564070
  0.9978849571383971  0.6076483462635395  0.6531663563564070
  0.9381132589929720  0.7709476624499706  0.6531663563564070
  0.8783415608475451  0.9342469786364074  0.6531663563564070
  0.0666665999999978  0.1333333999999979  0.4225389375686882
  0.0666665999999978  0.3333334000000008  0.4225389375686882
  0.0666665999999978  0.5333334000000036  0.4225389375686882
  0.0666665999999978  0.7333333999999994  0.4225389375686882
  0.0666665999999978  0.9333334000000022  0.4225389375686882
  0.2666666000000006  0.1333333999999979  0.4225389375686882
  0.2666666000000006  0.3333334000000008  0.4225389375686882
  0.2666666000000006  0.5333334000000036  0.4225389375686882
  0.2666666000000006  0.7333333999999994  0.4225389375686882
  0.2666666000000006  0.9333334000000022  0.4225389375686882
  0.4666666000000035  0.1333333999999979  0.4225389375686882
  0.4666666000000035  0.3333334000000008  0.4225389375686882
  0.4666666000000035  0.5333334000000036  0.4225389375686882
  0.4666666000000035  0.7333333999999994  0.4225389375686882
  0.4666666000000035  0.9333334000000022  0.4225389375686882
  0.6666665999999993  0.1333333999999979  0.4225389375686882
  0.6666665999999993  0.3333334000000008  0.4225389375686882
  0.6666665999999993  0.5333334000000036  0.4225389375686882
  0.6666665999999993  0.7333333999999994  0.4225389375686882
  0.6666665999999993  0.9333334000000022  0.4225389375686882
  0.8666666000000021  0.1333333999999979  0.4225389375686882
  0.8666666000000021  0.3333334000000008  0.4225389375686882
  0.8666666000000020  0.5333334000000036  0.4225389375686882
  0.8666666000000021  0.7333333999999994  0.4225389375686882
  0.8666666000000021  0.9333334000000022  0.4225389375686882
  0.2251442961124751  0.0419629213196314  0.5770028874699620
  0.1653725979670481  0.2052622375060683  0.5770028874699620
  0.1056008998216209  0.3685615536925051  0.5770028874699620
  0.0458292016761961  0.5318608698789362  0.5770028874699620
 -0.0139424964692310  0.6951601860653730  0.5770028874699620
  0.4482153104416711  0.1017346194623906  0.5770028874699620
  0.3884436122962441  0.2650339356488274  0.5770028874699620
  0.3286719141508170  0.4283332518352642  0.5770028874699620
  0.2689002160053921  0.5916325680216953  0.5770028874699620
  0.2091285178599649  0.7549318842081321  0.5770028874699620
  0.6712863247708671  0.1615063176051497  0.5770028874699620
  0.6115146266254401  0.3248056337915865  0.5770028874699620
  0.5517429284800129  0.4881049499780233  0.5770028874699620
  0.4919712303345881  0.6514042661644545  0.5770028874699620
  0.4321995321891530  0.8147035823508891  0.5770028874699620
  0.8943573391000553  0.2212780157479067  0.5770028874699620
  0.8345856409546281  0.3845773319343435  0.5770028874699620
  0.7748139428092010  0.5478766481207804  0.5770028874699620
  0.7150422446637761  0.7111759643072114  0.5770028874699620
  0.6552705465183490  0.8744752804936482  0.5770028874699620
  1.1174283534292513  0.2810497138906659  0.5770028874699620
  1.0576566552838240  0.4443490300771026  0.5770028874699620
  0.9978849571383971  0.6076483462635395  0.5770028874699620
  0.9381132589929720  0.7709476624499706  0.5770028874699620
  0.8783415608475451  0.9342469786364074  0.5770028874699620
Cartesian
  0.0000000000000000  0.0000000000000000  0.0000000000000000
  0.0000000000000000  0.0000000000000000  0.0000000000000000
  0.0000000000000000  0.0000000000000000  0.0000000000000000
  0.0000000000000000  0.0000000000000000  0.0000000000000000
  0.0000000000000000  0.0000000000000000  0.0000000000000000
  0.0000000000000000  0.0000000000000000  0.0000000000000000
  0.0000000000000000  0.0000000000000000  0.0000000000000000
  0.0000000000000000  0.0000000000000000  0.0000000000000000
  0.0000000000000000  0.0000000000000000  0.0000000000000000
  0.0000000000000000  0.0000000000000000  0.0000000000000000
  0.0000000000000000  0.0000000000000000  0.0000000000000000
  0.0000000000000000  0.0000000000000000  0.0000000000000000
  0.0000000000000000  0.0000000000000000  0.0000000000000000
  0.0000000000000000  0.0000000000000000  0.0000000000000000
  0.0000000000000000  0.0000000000000000  0.0000000000000000
  0.0000000000000000  0.0000000000000000  0.0000000000000000
  0.0000000000000000  0.0000000000000000  0.0000000000000000
  0.0000000000000000  0.0000000000000000  0.0000000000000000
  0.0000000000000000  0.0000000000000000  0.0000000000000000
  0.0000000000000000  0.0000000000000000  0.0000000000000000
  0.0000000000000000  0.0000000000000000  0.0000000000000000
  0.0000000000000000  0.0000000000000000  0.0000000000000000
  0.0000000000000000  0.0000000000000000  0.0000000000000000
  0.0000000000000000  0.0000000000000000  0.0000000000000000
  0.0000000000000000  0.0000000000000000  0.0000000000000000
  0.0000000000000000  0.0000000000000000  0.0000000000000000
  0.0000000000000000  0.0000000000000000  0.0000000000000000
  0.0000000000000000  0.0000000000000000  0.0000000000000000
  0.0000000000000000  0.0000000000000000  0.0000000000000000
  0.0000000000000000  0.0000000000000000  0.0000000000000000
  0.0000000000000000  0.0000000000000000  0.0000000000000000
  0.0000000000000000  0.0000000000000000  0.0000000000000000
  0.0000000000000000  0.0000000000000000  0.0000000000000000
  0.0000000000000000  0.0000000000000000  0.0000000000000000
  0.0000000000000000  0.0000000000000000  0.0000000000000000
  0.0000000000000000  0.0000000000000000  0.0000000000000000
  0.0000000000000000  0.0000000000000000  0.0000000000000000
  0.0000000000000000  0.0000000000000000  0.0000000000000000
  0.0000000000000000  0.0000000000000000  0.0000000000000000
  0.0000000000000000  0.0000000000000000  0.0000000000000000
  0.0000000000000000  0.0000000000000000  0.0000000000000000
  0.0000000000000000  0.0000000000000000  0.0000000000000000
  0.0000000000000000  0.0000000000000000  0.0000000000000000
  0.0000000000000000  0.0000000000000000  0.0000000000000000
  0.0000000000000000  0.0000000000000000  0.0000000000000000
  0.0000000000000000  0.0000000000000000  0.0000000000000000
  0.0000000000000000  0.0000000000000000  0.0000000000000000
  0.0000000000000000  0.0000000000000000  0.0000000000000000
  0.0000000000000000  0.0000000000000000  0.0000000000000000
  0.0000000000000000  0.0000000000000000  0.0000000000000000
  0.0000000000000000  0.0000000000000000  0.0000000000000000
  0.0000000000000000  0.0000000000000000  0.0000000000000000
  0.0000000000000000  0.0000000000000000  0.0000000000000000
  0.0000000000000000  0.0000000000000000  0.0000000000000000
  0.0000000000000000  0.0000000000000000  0.0000000000000000
  0.0000000000000000  0.0000000000000000  0.0000000000000000
  0.0000000000000000  0.0000000000000000  0.0000000000000000
  0.0000000000000000  0.0000000000000000  0.0000000000000000
  0.0000000000000000  0.0000000000000000  0.0000000000000000
  0.0000000000000000  0.0000000000000000  0.0000000000000000
  0.0000000000000000  0.0000000000000000  0.0000000000000000
  0.0000000000000000  0.0000000000000000  0.0000000000000000
  0.0000000000000000  0.0000000000000000  0.0000000000000000
  0.0000000000000000  0.0000000000000000  0.0000000000000000
  0.0000000000000000  0.0000000000000000  0.0000000000000000
  0.0000000000000000  0.0000000000000000  0.0000000000000000
  0.0000000000000000  0.0000000000000000  0.0000000000000000
  0.0000000000000000  0.0000000000000000  0.0000000000000000
  0.0000000000000000  0.0000000000000000  0.0000000000000000
  0.0000000000000000  0.0000000000000000  0.0000000000000000
  0.0000000000000000  0.0000000000000000  0.0000000000000000
  0.0000000000000000  0.0000000000000000  0.0000000000000000
  0.0000000000000000  0.0000000000000000  0.0000000000000000
  0.0000000000000000  0.0000000000000000  0.0000000000000000
  0.0000000000000000  0.0000000000000000  0.0000000000000000
  0.0000000000000000  0.0000000000000000  0.0000000000000000
  0.0000000000000000  0.0000000000000000  0.0000000000000000
  0.0000000000000000  0.0000000000000000  0.0000000000000000
  0.0000000000000000  0.0000000000000000  0.0000000000000000
  0.0000000000000000  0.0000000000000000  0.0000000000000000
  0.0000000000000000  0.0000000000000000  0.0000000000000000
  0.0000000000000000  0.0000000000000000  0.0000000000000000
  0.0000000000000000  0.0000000000000000  0.0000000000000000
  0.0000000000000000  0.0000000000000000  0.0000000000000000
  0.0000000000000000  0.0000000000000000  0.0000000000000000
  0.0000000000000000  0.0000000000000000  0.0000000000000000
  0.0000000000000000  0.0000000000000000  0.0000000000000000
  0.0000000000000000  0.0000000000000000  0.0000000000000000
  0.0000000000000000  0.0000000000000000  0.0000000000000000
  0.0000000000000000  0.0000000000000000  0.0000000000000000
  0.0000000000000000  0.0000000000000000  0.0000000000000000
  0.0000000000000000  0.0000000000000000  0.0000000000000000
  0.0000000000000000  0.0000000000000000  0.0000000000000000
  0.0000000000000000  0.0000000000000000  0.0000000000000000
  0.0000000000000000  0.0000000000000000  0.0000000000000000
  0.0000000000000000  0.0000000000000000  0.0000000000000000
  0.0000000000000000  0.0000000000000000  0.0000000000000000
  0.0000000000000000  0.0000000000000000  0.0000000000000000
  0.0000000000000000  0.0000000000000000  0.0000000000000000
  0.0000000000000000  0.0000000000000000  0.0000000000000000
  0.0000000000000000  0.0000000000000000  0.0000000000000000
  0.0000000000000000  0.0000000000000000  0.0000000000000000
  0.0000000000000000  0.0000000000000000  0.0000000000000000
  0.0000000000000000  0.0000000000000000  0.0000000000000000
  0.0000000000000000  0.0000000000000000  0.0000000000000000
  0.0000000000000000  0.0000000000000000  0.0000000000000000
  0.0000000000000000  0.0000000000000000  0.0000000000000000
  0.0000000000000000  0.0000000000000000  0.0000000000000000
  0.0000000000000000  0.0000000000000000  0.0000000000000000
  0.0000000000000000  0.0000000000000000  0.0000000000000000
  0.0000000000000000  0.0000000000000000  0.0000000000000000
  0.0000000000000000  0.0000000000000000  0.0000000000000000
  0.0000000000000000  0.0000000000000000  0.0000000000000000
  0.0000000000000000  0.0000000000000000  0.0000000000000000
  0.0000000000000000  0.0000000000000000  0.0000000000000000
  0.0000000000000000  0.0000000000000000  0.0000000000000000
  0.0000000000000000  0.0000000000000000  0.0000000000000000
  0.0000000000000000  0.0000000000000000  0.0000000000000000
  0.0000000000000000  0.0000000000000000  0.0000000000000000
  0.0000000000000000  0.0000000000000000  0.0000000000000000
  0.0000000000000000  0.0000000000000000  0.0000000000000000
  0.0000000000000000  0.0000000000000000  0.0000000000000000
  0.0000000000000000  0.0000000000000000  0.0000000000000000
  0.0000000000000000  0.0000000000000000  0.0000000000000000
  0.0000000000000000  0.0000000000000000  0.0000000000000000
  0.0000000000000000  0.0000000000000000  0.0000000000000000
  0.0000000000000000  0.0000000000000000  0.0000000000000000
  0.0000000000000000  0.0000000000000000  0.0000000000000000
  0.0000000000000000  0.0000000000000000  0.0000000000000000
  0.0000000000000000  0.0000000000000000  0.0000000000000000
  0.0000000000000000  0.0000000000000000  0.0000000000000000
  0.0000000000000000  0.0000000000000000  0.0000000000000000
  0.0000000000000000  0.0000000000000000  0.0000000000000000
  0.0000000000000000  0.0000000000000000  0.0000000000000000
  0.0000000000000000  0.0000000000000000  0.0000000000000000
  0.0000000000000000  0.0000000000000000  0.0000000000000000
  0.0000000000000000  0.0000000000000000  0.0000000000000000
  0.0000000000000000  0.0000000000000000  0.0000000000000000
  0.0000000000000000  0.0000000000000000  0.0000000000000000
  0.0000000000000000  0.0000000000000000  0.0000000000000000
  0.0000000000000000  0.0000000000000000  0.0000000000000000
  0.0000000000000000  0.0000000000000000  0.0000000000000000
  0.0000000000000000  0.0000000000000000  0.0000000000000000
  0.0000000000000000  0.0000000000000000  0.0000000000000000
  0.0000000000000000  0.0000000000000000  0.0000000000000000
  0.0000000000000000  0.0000000000000000  0.0000000000000000
  0.0000000000000000  0.0000000000000000  0.0000000000000000
  0.0000000000000000  0.0000000000000000  0.0000000000000000
  0.0000000000000000  0.0000000000000000  0.0000000000000000
  0.0000000000000000  0.0000000000000000  0.0000000000000000
