MoSSe_Se_up__WSSe_S_up - Twisted 20.0deg - ASE exact rotation
 1.0000000000000000
    15.9515798090000001    0.0000000000000000    0.0000000000000000
    -7.9757899045000000   13.8144733454999997    0.0000000000000000
     0.0000000000000000    0.0000000000000000   43.2483995566878505
 Mo  W   S   Se 
  25  25  50  50
Direct
  0.1333333999999979  0.0666665999999978  0.3826319668828461
  0.1333333999999979  0.2666666000000006  0.3826319668828461
  0.1333333999999979  0.4666666000000035  0.3826319668828461
  0.1333333999999980  0.6666665999999992  0.3826319668828461
  0.1333333999999979  0.8666666000000021  0.3826319668828461
  0.3333334000000008  0.0666665999999978  0.3826319668828461
  0.3333334000000008  0.2666666000000006  0.3826319668828461
  0.3333334000000008  0.4666666000000035  0.3826319668828461
  0.3333334000000008  0.6666665999999992  0.3826319668828461
  0.3333334000000008  0.8666666000000021  0.3826319668828461
  0.5333334000000036  0.0666665999999978  0.3826319668828461
  0.5333334000000036  0.2666666000000006  0.3826319668828461
  0.5333334000000036  0.4666666000000035  0.3826319668828461
  0.5333334000000036  0.6666665999999992  0.3826319668828461
  0.5333333999999965  0.8666666000000021  0.3826319668828461
  0.7333333999999994  0.0666665999999978  0.3826319668828461
  0.7333333999999994  0.2666666000000006  0.3826319668828461
  0.7333333999999994  0.4666666000000035  0.3826319668828461
  0.7333333999999994  0.6666665999999992  0.3826319668828461
  0.7333333999999994  0.8666666000000021  0.3826319668828461
  0.9333334000000023  0.0666665999999978  0.3826319668828461
  0.9333334000000023  0.2666666000000006  0.3826319668828461
  0.9333334000000023  0.4666666000000035  0.3826319668828461
  0.9333334000000023  0.6666665999999992  0.3826319668828461
  0.9333334000000023  0.8666666000000021  0.3826319668828461
  0.1579514992969261  0.0639656285153604  0.6171407943301038
  0.0789653305688102  0.2124110683102496  0.6171407943301038
 -0.0000208381593059  0.3608565081051388  0.6171407943301038
 -0.0790070068874191  0.5093019479000226  0.6171407943301038
 -0.1579931756155351  0.6577473876949117  0.6171407943301038
  0.3853831078164056  0.1429517972399508  0.6171407943301038
  0.3063969390882896  0.2913972370348399  0.6171407943301038
  0.2274107703601736  0.4398426768297291  0.6171407943301038
  0.1484246016320604  0.5882881166246130  0.6171407943301038
  0.0694384329039444  0.7367335564195021  0.6171407943301038
  0.6128147163358854  0.2219379659645413  0.6171407943301038
  0.5338285476077693  0.3703834057594304  0.6171407943301038
  0.4548423788796532  0.5188288455543195  0.6171407943301038
  0.3758562101515400  0.6672742853492034  0.6171407943301038
  0.2968700414234241  0.8157197251440925  0.6171407943301038
  0.8402463248553569  0.3009241346891289  0.6171407943301038
  0.7612601561272409  0.4493695744840180  0.6171407943301038
  0.6822739873991248  0.5978150142789073  0.6171407943301038
  0.6032878186710117  0.7462604540737910  0.6171407943301038
  0.5243016499428955  0.8947058938686802  0.6171407943301038
  1.0676779333748363  0.3799103034137193  0.6171407943301038
  0.9886917646467204  0.5283557432086085  0.6171407943301038
  0.9097055959186043  0.6768011830034977  0.6171407943301038
  0.8307194271904912  0.8252466227983816  0.6171407943301038
  0.7517332584623752  0.9736920625932706  0.6171407943301038
  0.0666665999999978  0.1333333999999979  0.3468336436435930
  0.0666665999999978  0.3333334000000008  0.3468336436435930
  0.0666665999999978  0.5333334000000036  0.3468336436435930
  0.0666665999999978  0.7333333999999994  0.3468336436435930
  0.0666665999999978  0.9333334000000022  0.3468336436435930
  0.2666666000000006  0.1333333999999979  0.3468336436435930
  0.2666666000000006  0.3333334000000008  0.3468336436435930
  0.2666666000000006  0.5333334000000036  0.3468336436435930
  0.2666666000000006  0.7333333999999994  0.3468336436435930
  0.2666666000000006  0.9333334000000022  0.3468336436435930
  0.4666666000000035  0.1333333999999979  0.3468336436435930
  0.4666666000000035  0.3333334000000008  0.3468336436435930
  0.4666666000000035  0.5333334000000036  0.3468336436435930
  0.4666666000000035  0.7333333999999994  0.3468336436435930
  0.4666666000000035  0.9333334000000022  0.3468336436435930
  0.6666665999999993  0.1333333999999979  0.3468336436435930
  0.6666665999999993  0.3333334000000008  0.3468336436435930
  0.6666665999999993  0.5333334000000036  0.3468336436435930
  0.6666665999999993  0.7333333999999994  0.3468336436435930
  0.6666665999999993  0.9333334000000022  0.3468336436435930
  0.8666666000000021  0.1333333999999979  0.3468336436435930
  0.8666666000000021  0.3333334000000008  0.3468336436435930
  0.8666666000000020  0.5333334000000036  0.3468336436435930
  0.8666666000000021  0.7333333999999994  0.3468336436435930
  0.8666666000000021  0.9333334000000022  0.3468336436435930
  0.2600909626579749  0.0408124918524138  0.6531663563564070
  0.1811047939298590  0.1892579316473029  0.6531663563564070
  0.1021186252017429  0.3377033714421920  0.6531663563564070
  0.0231324564736297  0.4861488112370759  0.6531663563564070
 -0.0558537122544864  0.6345942510319651  0.6531663563564070
  0.4875225711774546  0.1197986605770042  0.6531663563564070
  0.4085364024493385  0.2682441003718933  0.6531663563564070
  0.3295502337212224  0.4166895401667824  0.6531663563564070
  0.2505640649931093  0.5651349799616664  0.6531663563564070
  0.1715778962649933  0.7135804197565555  0.6531663563564070
  0.7149541796969341  0.1987848293015946  0.6531663563564070
  0.6359680109688181  0.3472302690964836  0.6531663563564070
  0.5569818422407020  0.4956757088913729  0.6531663563564070
  0.4779956735125889  0.6441211486862568  0.6531663563564070
  0.3990095047844647  0.7925665884811430  0.6531663563564070
  0.9423857882164055  0.2777709980261822  0.6531663563564070
  0.8633996194882896  0.4262164378210713  0.6531663563564070
  0.7844134507601737  0.5746618776159605  0.6531663563564070
  0.7054272820320604  0.7231073174108444  0.6531663563564070
  0.6264411133039444  0.8715527572057334  0.6531663563564070
  1.1698173967358854  0.3567571667507727  0.6531663563564070
  1.0908312280077692  0.5052026065456617  0.6531663563564070
  1.0118450592796531  0.6536480463405508  0.6531663563564070
  0.9328588905515399  0.8020934861354347  0.6531663563564070
  0.8538727218234240  0.9505389259303240  0.6531663563564070
  0.0666665999999978  0.1333333999999979  0.4225389375686882
  0.0666665999999978  0.3333334000000008  0.4225389375686882
  0.0666665999999978  0.5333334000000036  0.4225389375686882
  0.0666665999999978  0.7333333999999994  0.4225389375686882
  0.0666665999999978  0.9333334000000022  0.4225389375686882
  0.2666666000000006  0.1333333999999979  0.4225389375686882
  0.2666666000000006  0.3333334000000008  0.4225389375686882
  0.2666666000000006  0.5333334000000036  0.4225389375686882
  0.2666666000000006  0.7333333999999994  0.4225389375686882
  0.2666666000000006  0.9333334000000022  0.4225389375686882
  0.4666666000000035  0.1333333999999979  0.4225389375686882
  0.4666666000000035  0.3333334000000008  0.4225389375686882
  0.4666666000000035  0.5333334000000036  0.4225389375686882
  0.4666666000000035  0.7333333999999994  0.4225389375686882
  0.4666666000000035  0.9333334000000022  0.4225389375686882
  0.6666665999999993  0.1333333999999979  0.4225389375686882
  0.6666665999999993  0.3333334000000008  0.4225389375686882
  0.6666665999999993  0.5333334000000036  0.4225389375686882
  0.6666665999999993  0.7333333999999994  0.4225389375686882
  0.6666665999999993  0.9333334000000022  0.4225389375686882
  0.8666666000000021  0.1333333999999979  0.4225389375686882
  0.8666666000000021  0.3333334000000008  0.4225389375686882
  0.8666666000000020  0.5333334000000036  0.4225389375686882
  0.8666666000000021  0.7333333999999994  0.4225389375686882
  0.8666666000000021  0.9333334000000022  0.4225389375686882
  0.2600909626579749  0.0408124918524138  0.5770028874699620
  0.1811047939298590  0.1892579316473029  0.5770028874699620
  0.1021186252017429  0.3377033714421920  0.5770028874699620
  0.0231324564736297  0.4861488112370759  0.5770028874699620
 -0.0558537122544864  0.6345942510319651  0.5770028874699620
  0.4875225711774546  0.1197986605770042  0.5770028874699620
  0.4085364024493385  0.2682441003718933  0.5770028874699620
  0.3295502337212224  0.4166895401667824  0.5770028874699620
  0.2505640649931093  0.5651349799616664  0.5770028874699620
  0.1715778962649933  0.7135804197565555  0.5770028874699620
  0.7149541796969341  0.1987848293015946  0.5770028874699620
  0.6359680109688181  0.3472302690964836  0.5770028874699620
  0.5569818422407020  0.4956757088913729  0.5770028874699620
  0.4779956735125889  0.6441211486862568  0.5770028874699620
  0.3990095047844647  0.7925665884811430  0.5770028874699620
  0.9423857882164055  0.2777709980261822  0.5770028874699620
  0.8633996194882896  0.4262164378210713  0.5770028874699620
  0.7844134507601737  0.5746618776159605  0.5770028874699620
  0.7054272820320604  0.7231073174108444  0.5770028874699620
  0.6264411133039444  0.8715527572057334  0.5770028874699620
  1.1698173967358854  0.3567571667507727  0.5770028874699620
  1.0908312280077692  0.5052026065456617  0.5770028874699620
  1.0118450592796531  0.6536480463405508  0.5770028874699620
  0.9328588905515399  0.8020934861354347  0.5770028874699620
  0.8538727218234240  0.9505389259303240  0.5770028874699620
Cartesian
  0.0000000000000000  0.0000000000000000  0.0000000000000000
  0.0000000000000000  0.0000000000000000  0.0000000000000000
  0.0000000000000000  0.0000000000000000  0.0000000000000000
  0.0000000000000000  0.0000000000000000  0.0000000000000000
  0.0000000000000000  0.0000000000000000  0.0000000000000000
  0.0000000000000000  0.0000000000000000  0.0000000000000000
  0.0000000000000000  0.0000000000000000  0.0000000000000000
  0.0000000000000000  0.0000000000000000  0.0000000000000000
  0.0000000000000000  0.0000000000000000  0.0000000000000000
  0.0000000000000000  0.0000000000000000  0.0000000000000000
  0.0000000000000000  0.0000000000000000  0.0000000000000000
  0.0000000000000000  0.0000000000000000  0.0000000000000000
  0.0000000000000000  0.0000000000000000  0.0000000000000000
  0.0000000000000000  0.0000000000000000  0.0000000000000000
  0.0000000000000000  0.0000000000000000  0.0000000000000000
  0.0000000000000000  0.0000000000000000  0.0000000000000000
  0.0000000000000000  0.0000000000000000  0.0000000000000000
  0.0000000000000000  0.0000000000000000  0.0000000000000000
  0.0000000000000000  0.0000000000000000  0.0000000000000000
  0.0000000000000000  0.0000000000000000  0.0000000000000000
  0.0000000000000000  0.0000000000000000  0.0000000000000000
  0.0000000000000000  0.0000000000000000  0.0000000000000000
  0.0000000000000000  0.0000000000000000  0.0000000000000000
  0.0000000000000000  0.0000000000000000  0.0000000000000000
  0.0000000000000000  0.0000000000000000  0.0000000000000000
  0.0000000000000000  0.0000000000000000  0.0000000000000000
  0.0000000000000000  0.0000000000000000  0.0000000000000000
  0.0000000000000000  0.0000000000000000  0.0000000000000000
  0.0000000000000000  0.0000000000000000  0.0000000000000000
  0.0000000000000000  0.0000000000000000  0.0000000000000000
  0.0000000000000000  0.0000000000000000  0.0000000000000000
  0.0000000000000000  0.0000000000000000  0.0000000000000000
  0.0000000000000000  0.0000000000000000  0.0000000000000000
  0.0000000000000000  0.0000000000000000  0.0000000000000000
  0.0000000000000000  0.0000000000000000  0.0000000000000000
  0.0000000000000000  0.0000000000000000  0.0000000000000000
  0.0000000000000000  0.0000000000000000  0.0000000000000000
  0.0000000000000000  0.0000000000000000  0.0000000000000000
  0.0000000000000000  0.0000000000000000  0.0000000000000000
  0.0000000000000000  0.0000000000000000  0.0000000000000000
  0.0000000000000000  0.0000000000000000  0.0000000000000000
  0.0000000000000000  0.0000000000000000  0.0000000000000000
  0.0000000000000000  0.0000000000000000  0.0000000000000000
  0.0000000000000000  0.0000000000000000  0.0000000000000000
  0.0000000000000000  0.0000000000000000  0.0000000000000000
  0.0000000000000000  0.0000000000000000  0.0000000000000000
  0.0000000000000000  0.0000000000000000  0.0000000000000000
  0.0000000000000000  0.0000000000000000  0.0000000000000000
  0.0000000000000000  0.0000000000000000  0.0000000000000000
  0.0000000000000000  0.0000000000000000  0.0000000000000000
  0.0000000000000000  0.0000000000000000  0.0000000000000000
  0.0000000000000000  0.0000000000000000  0.0000000000000000
  0.0000000000000000  0.0000000000000000  0.0000000000000000
  0.0000000000000000  0.0000000000000000  0.0000000000000000
  0.0000000000000000  0.0000000000000000  0.0000000000000000
  0.0000000000000000  0.0000000000000000  0.0000000000000000
  0.0000000000000000  0.0000000000000000  0.0000000000000000
  0.0000000000000000  0.0000000000000000  0.0000000000000000
  0.0000000000000000  0.0000000000000000  0.0000000000000000
  0.0000000000000000  0.0000000000000000  0.0000000000000000
  0.0000000000000000  0.0000000000000000  0.0000000000000000
  0.0000000000000000  0.0000000000000000  0.0000000000000000
  0.0000000000000000  0.0000000000000000  0.0000000000000000
  0.0000000000000000  0.0000000000000000  0.0000000000000000
  0.0000000000000000  0.0000000000000000  0.0000000000000000
  0.0000000000000000  0.0000000000000000  0.0000000000000000
  0.0000000000000000  0.0000000000000000  0.0000000000000000
  0.0000000000000000  0.0000000000000000  0.0000000000000000
  0.0000000000000000  0.0000000000000000  0.0000000000000000
  0.0000000000000000  0.0000000000000000  0.0000000000000000
  0.0000000000000000  0.0000000000000000  0.0000000000000000
  0.0000000000000000  0.0000000000000000  0.0000000000000000
  0.0000000000000000  0.0000000000000000  0.0000000000000000
  0.0000000000000000  0.0000000000000000  0.0000000000000000
  0.0000000000000000  0.0000000000000000  0.0000000000000000
  0.0000000000000000  0.0000000000000000  0.0000000000000000
  0.0000000000000000  0.0000000000000000  0.0000000000000000
  0.0000000000000000  0.0000000000000000  0.0000000000000000
  0.0000000000000000  0.0000000000000000  0.0000000000000000
  0.0000000000000000  0.0000000000000000  0.0000000000000000
  0.0000000000000000  0.0000000000000000  0.0000000000000000
  0.0000000000000000  0.0000000000000000  0.0000000000000000
  0.0000000000000000  0.0000000000000000  0.0000000000000000
  0.0000000000000000  0.0000000000000000  0.0000000000000000
  0.0000000000000000  0.0000000000000000  0.0000000000000000
  0.0000000000000000  0.0000000000000000  0.0000000000000000
  0.0000000000000000  0.0000000000000000  0.0000000000000000
  0.0000000000000000  0.0000000000000000  0.0000000000000000
  0.0000000000000000  0.0000000000000000  0.0000000000000000
  0.0000000000000000  0.0000000000000000  0.0000000000000000
  0.0000000000000000  0.0000000000000000  0.0000000000000000
  0.0000000000000000  0.0000000000000000  0.0000000000000000
  0.0000000000000000  0.0000000000000000  0.0000000000000000
  0.0000000000000000  0.0000000000000000  0.0000000000000000
  0.0000000000000000  0.0000000000000000  0.0000000000000000
  0.0000000000000000  0.0000000000000000  0.0000000000000000
  0.0000000000000000  0.0000000000000000  0.0000000000000000
  0.0000000000000000  0.0000000000000000  0.0000000000000000
  0.0000000000000000  0.0000000000000000  0.0000000000000000
  0.0000000000000000  0.0000000000000000  0.0000000000000000
  0.0000000000000000  0.0000000000000000  0.0000000000000000
  0.0000000000000000  0.0000000000000000  0.0000000000000000
  0.0000000000000000  0.0000000000000000  0.0000000000000000
  0.0000000000000000  0.0000000000000000  0.0000000000000000
  0.0000000000000000  0.0000000000000000  0.0000000000000000
  0.0000000000000000  0.0000000000000000  0.0000000000000000
  0.0000000000000000  0.0000000000000000  0.0000000000000000
  0.0000000000000000  0.0000000000000000  0.0000000000000000
  0.0000000000000000  0.0000000000000000  0.0000000000000000
  0.0000000000000000  0.0000000000000000  0.0000000000000000
  0.0000000000000000  0.0000000000000000  0.0000000000000000
  0.0000000000000000  0.0000000000000000  0.0000000000000000
  0.0000000000000000  0.0000000000000000  0.0000000000000000
  0.0000000000000000  0.0000000000000000  0.0000000000000000
  0.0000000000000000  0.0000000000000000  0.0000000000000000
  0.0000000000000000  0.0000000000000000  0.0000000000000000
  0.0000000000000000  0.0000000000000000  0.0000000000000000
  0.0000000000000000  0.0000000000000000  0.0000000000000000
  0.0000000000000000  0.0000000000000000  0.0000000000000000
  0.0000000000000000  0.0000000000000000  0.0000000000000000
  0.0000000000000000  0.0000000000000000  0.0000000000000000
  0.0000000000000000  0.0000000000000000  0.0000000000000000
  0.0000000000000000  0.0000000000000000  0.0000000000000000
  0.0000000000000000  0.0000000000000000  0.0000000000000000
  0.0000000000000000  0.0000000000000000  0.0000000000000000
  0.0000000000000000  0.0000000000000000  0.0000000000000000
  0.0000000000000000  0.0000000000000000  0.0000000000000000
  0.0000000000000000  0.0000000000000000  0.0000000000000000
  0.0000000000000000  0.0000000000000000  0.0000000000000000
  0.0000000000000000  0.0000000000000000  0.0000000000000000
  0.0000000000000000  0.0000000000000000  0.0000000000000000
  0.0000000000000000  0.0000000000000000  0.0000000000000000
  0.0000000000000000  0.0000000000000000  0.0000000000000000
  0.0000000000000000  0.0000000000000000  0.0000000000000000
  0.0000000000000000  0.0000000000000000  0.0000000000000000
  0.0000000000000000  0.0000000000000000  0.0000000000000000
  0.0000000000000000  0.0000000000000000  0.0000000000000000
  0.0000000000000000  0.0000000000000000  0.0000000000000000
  0.0000000000000000  0.0000000000000000  0.0000000000000000
  0.0000000000000000  0.0000000000000000  0.0000000000000000
  0.0000000000000000  0.0000000000000000  0.0000000000000000
  0.0000000000000000  0.0000000000000000  0.0000000000000000
  0.0000000000000000  0.0000000000000000  0.0000000000000000
  0.0000000000000000  0.0000000000000000  0.0000000000000000
  0.0000000000000000  0.0000000000000000  0.0000000000000000
  0.0000000000000000  0.0000000000000000  0.0000000000000000
  0.0000000000000000  0.0000000000000000  0.0000000000000000
  0.0000000000000000  0.0000000000000000  0.0000000000000000
  0.0000000000000000  0.0000000000000000  0.0000000000000000
  0.0000000000000000  0.0000000000000000  0.0000000000000000
