MoSSe_S_up__WSSe_Se_up | Janus TMDC Hete
   1.00000000000000     
    15.9515798090000001    0.0000000000000000    0.0000000000000000
    -7.9757899045000000   13.8144733454999997    0.0000000000000000
     0.0000000000000000    0.0000000000000000   28.2498397219514530
   Mo   W    S    Se
    25    25    50    50
Direct
  0.1333333999999979  0.0666665999999978  0.0575075410040355
  0.1333333999999979  0.2666666000000006  0.0575075410040355
  0.1333333999999979  0.4666666000000035  0.0575075410040355
  0.1333333999999979  0.6666665999999992  0.0575075410040355
  0.1333333999999979  0.8666666000000021  0.0575075410040355
  0.3333334000000008  0.0666665999999978  0.0575075410040355
  0.3333334000000008  0.2666666000000006  0.0575075410040355
  0.3333334000000008  0.4666666000000035  0.0575075410040355
  0.3333334000000008  0.6666665999999992  0.0575075410040355
  0.3333334000000008  0.8666666000000021  0.0575075410040355
  0.5333334000000036  0.0666665999999978  0.0575075410040355
  0.5333334000000036  0.2666666000000006  0.0575075410040355
  0.5333334000000036  0.4666666000000035  0.0575075410040355
  0.5333334000000036  0.6666665999999992  0.0575075410040355
  0.5333333999999965  0.8666666000000021  0.0575075410040355
  0.7333333999999994  0.0666665999999978  0.0575075410040355
  0.7333333999999994  0.2666666000000006  0.0575075410040355
  0.7333333999999994  0.4666666000000035  0.0575075410040355
  0.7333333999999994  0.6666665999999992  0.0575075410040355
  0.7333333999999994  0.8666666000000021  0.0575075410040355
  0.9333334000000022  0.0666665999999978  0.0575075410040355
  0.9333334000000022  0.2666666000000006  0.0575075410040355
  0.9333334000000022  0.4666666000000035  0.0575075410040355
  0.9333334000000022  0.6666665999999992  0.0575075410040355
  0.9333334000000022  0.8666666000000021  0.0575075410040355
  0.0666665999999978  0.1333333999999979  0.4081455877254356
  0.0666665999999978  0.3333334000000008  0.4081455877254356
  0.0666665999999978  0.5333334000000036  0.4081455877254356
  0.0666665999999978  0.7333333999999994  0.4081455877254356
  0.0666665999999978  0.9333334000000022  0.4081455877254356
  0.2666666000000006  0.1333333999999979  0.4081455877254356
  0.2666666000000006  0.3333334000000008  0.4081455877254356
  0.2666666000000006  0.5333334000000036  0.4081455877254356
  0.2666666000000006  0.7333333999999994  0.4081455877254356
  0.2666666000000006  0.9333334000000022  0.4081455877254356
  0.4666666000000035  0.1333333999999979  0.4081455877254356
  0.4666666000000035  0.3333334000000008  0.4081455877254356
  0.4666666000000035  0.5333334000000036  0.4081455877254356
  0.4666666000000035  0.7333333999999994  0.4081455877254356
  0.4666666000000035  0.9333334000000022  0.4081455877254356
  0.6666665999999992  0.1333333999999979  0.4081455877254356
  0.6666665999999992  0.3333334000000008  0.4081455877254356
  0.6666665999999992  0.5333334000000036  0.4081455877254356
  0.6666665999999992  0.7333333999999994  0.4081455877254356
  0.6666665999999992  0.9333334000000022  0.4081455877254356
  0.8666666000000021  0.1333333999999979  0.4081455877254356
  0.8666666000000021  0.3333334000000008  0.4081455877254356
  0.8666666000000021  0.5333334000000036  0.4081455877254356
  0.8666666000000021  0.7333333999999994  0.4081455877254356
  0.8666666000000021  0.9333334000000022  0.4081455877254356
  0.0666665999999978  0.1333333999999979  0.1123031553799976
  0.0666665999999978  0.3333334000000008  0.1123031553799976
  0.0666665999999978  0.5333334000000036  0.1123031553799976
  0.0666665999999978  0.7333333999999994  0.1123031553799976
  0.0666665999999978  0.9333334000000022  0.1123031553799976
  0.2666666000000006  0.1333333999999979  0.1123031553799976
  0.2666666000000006  0.3333334000000008  0.1123031553799976
  0.2666666000000006  0.5333334000000036  0.1123031553799976
  0.2666666000000006  0.7333333999999994  0.1123031553799976
  0.2666666000000006  0.9333334000000022  0.1123031553799976
  0.4666666000000035  0.1333333999999979  0.1123031553799976
  0.4666666000000035  0.3333334000000008  0.1123031553799976
  0.4666666000000035  0.5333334000000036  0.1123031553799976
  0.4666666000000035  0.7333333999999994  0.1123031553799976
  0.4666666000000035  0.9333334000000022  0.1123031553799976
  0.6666665999999992  0.1333333999999979  0.1123031553799976
  0.6666665999999992  0.3333334000000008  0.1123031553799976
  0.6666665999999992  0.5333334000000036  0.1123031553799976
  0.6666665999999992  0.7333333999999994  0.1123031553799976
  0.6666665999999992  0.9333334000000022  0.1123031553799976
  0.8666666000000021  0.1333333999999979  0.1123031553799976
  0.8666666000000021  0.3333334000000008  0.1123031553799976
  0.8666666000000021  0.5333334000000036  0.1123031553799976
  0.8666666000000021  0.7333333999999994  0.1123031553799976
  0.8666666000000021  0.9333334000000022  0.1123031553799976
  0.1333333999999979  0.0666665999999978  0.3529968944641624
  0.1333333999999979  0.2666666000000006  0.3529968944641624
  0.1333333999999979  0.4666666000000035  0.3529968944641624
  0.1333333999999979  0.6666665999999992  0.3529968944641624
  0.1333333999999979  0.8666666000000021  0.3529968944641624
  0.3333334000000008  0.0666665999999978  0.3529968944641624
  0.3333334000000008  0.2666666000000006  0.3529968944641624
  0.3333334000000008  0.4666666000000035  0.3529968944641624
  0.3333334000000008  0.6666665999999992  0.3529968944641624
  0.3333334000000008  0.8666666000000021  0.3529968944641624
  0.5333334000000036  0.0666665999999978  0.3529968944641624
  0.5333334000000036  0.2666666000000006  0.3529968944641624
  0.5333334000000036  0.4666666000000035  0.3529968944641624
  0.5333334000000036  0.6666665999999992  0.3529968944641624
  0.5333333999999965  0.8666666000000021  0.3529968944641624
  0.7333333999999994  0.0666665999999978  0.3529968944641624
  0.7333333999999994  0.2666666000000006  0.3529968944641624
  0.7333333999999994  0.4666666000000035  0.3529968944641624
  0.7333333999999994  0.6666665999999992  0.3529968944641624
  0.7333333999999994  0.8666666000000021  0.3529968944641624
  0.9333334000000022  0.0666665999999978  0.3529968944641624
  0.9333334000000022  0.2666666000000006  0.3529968944641624
  0.9333334000000022  0.4666666000000035  0.3529968944641624
  0.9333334000000022  0.6666665999999992  0.3529968944641624
  0.9333334000000022  0.8666666000000021  0.3529968944641624
  0.0666665999999978  0.1333333999999979  0.9964232068823762
  0.0666665999999978  0.3333334000000008  0.9964232068823762
  0.0666665999999978  0.5333334000000036  0.9964232068823762
  0.0666665999999978  0.7333333999999994  0.9964232068823762
  0.0666665999999978  0.9333334000000022  0.9964232068823762
  0.2666666000000006  0.1333333999999979  0.9964232068823762
  0.2666666000000006  0.3333334000000008  0.9964232068823762
  0.2666666000000006  0.5333334000000036  0.9964232068823762
  0.2666666000000006  0.7333333999999994  0.9964232068823762
  0.2666666000000006  0.9333334000000022  0.9964232068823762
  0.4666666000000035  0.1333333999999979  0.9964232068823762
  0.4666666000000035  0.3333334000000008  0.9964232068823762
  0.4666666000000035  0.5333334000000036  0.9964232068823762
  0.4666666000000035  0.7333333999999994  0.9964232068823762
  0.4666666000000035  0.9333334000000022  0.9964232068823762
  0.6666665999999992  0.1333333999999979  0.9964232068823762
  0.6666665999999992  0.3333334000000008  0.9964232068823762
  0.6666665999999992  0.5333334000000036  0.9964232068823762
  0.6666665999999992  0.7333333999999994  0.9964232068823762
  0.6666665999999992  0.9333334000000022  0.9964232068823762
  0.8666666000000021  0.1333333999999979  0.9964232068823762
  0.8666666000000021  0.3333334000000008  0.9964232068823762
  0.8666666000000021  0.5333334000000036  0.9964232068823762
  0.8666666000000021  0.7333333999999994  0.9964232068823762
  0.8666666000000021  0.9333334000000022  0.9964232068823762
  0.1333333999999979  0.0666665999999978  0.4695896105162092
  0.1333333999999979  0.2666666000000006  0.4695896105162092
  0.1333333999999979  0.4666666000000035  0.4695896105162092
  0.1333333999999979  0.6666665999999992  0.4695896105162092
  0.1333333999999979  0.8666666000000021  0.4695896105162092
  0.3333334000000008  0.0666665999999978  0.4695896105162092
  0.3333334000000008  0.2666666000000006  0.4695896105162092
  0.3333334000000008  0.4666666000000035  0.4695896105162092
  0.3333334000000008  0.6666665999999992  0.4695896105162092
  0.3333334000000008  0.8666666000000021  0.4695896105162092
  0.5333334000000036  0.0666665999999978  0.4695896105162092
  0.5333334000000036  0.2666666000000006  0.4695896105162092
  0.5333334000000036  0.4666666000000035  0.4695896105162092
  0.5333334000000036  0.6666665999999992  0.4695896105162092
  0.5333333999999965  0.8666666000000021  0.4695896105162092
  0.7333333999999994  0.0666665999999978  0.4695896105162092
  0.7333333999999994  0.2666666000000006  0.4695896105162092
  0.7333333999999994  0.4666666000000035  0.4695896105162092
  0.7333333999999994  0.6666665999999992  0.4695896105162092
  0.7333333999999994  0.8666666000000021  0.4695896105162092
  0.9333334000000022  0.0666665999999978  0.4695896105162092
  0.9333334000000022  0.2666666000000006  0.4695896105162092
  0.9333334000000022  0.4666666000000035  0.4695896105162092
  0.9333334000000022  0.6666665999999992  0.4695896105162092
  0.9333334000000022  0.8666666000000021  0.4695896105162092
 
  0.00000000E+00  0.00000000E+00  0.00000000E+00
  0.00000000E+00  0.00000000E+00  0.00000000E+00
  0.00000000E+00  0.00000000E+00  0.00000000E+00
  0.00000000E+00  0.00000000E+00  0.00000000E+00
  0.00000000E+00  0.00000000E+00  0.00000000E+00
  0.00000000E+00  0.00000000E+00  0.00000000E+00
  0.00000000E+00  0.00000000E+00  0.00000000E+00
  0.00000000E+00  0.00000000E+00  0.00000000E+00
  0.00000000E+00  0.00000000E+00  0.00000000E+00
  0.00000000E+00  0.00000000E+00  0.00000000E+00
  0.00000000E+00  0.00000000E+00  0.00000000E+00
  0.00000000E+00  0.00000000E+00  0.00000000E+00
  0.00000000E+00  0.00000000E+00  0.00000000E+00
  0.00000000E+00  0.00000000E+00  0.00000000E+00
  0.00000000E+00  0.00000000E+00  0.00000000E+00
  0.00000000E+00  0.00000000E+00  0.00000000E+00
  0.00000000E+00  0.00000000E+00  0.00000000E+00
  0.00000000E+00  0.00000000E+00  0.00000000E+00
  0.00000000E+00  0.00000000E+00  0.00000000E+00
  0.00000000E+00  0.00000000E+00  0.00000000E+00
  0.00000000E+00  0.00000000E+00  0.00000000E+00
  0.00000000E+00  0.00000000E+00  0.00000000E+00
  0.00000000E+00  0.00000000E+00  0.00000000E+00
  0.00000000E+00  0.00000000E+00  0.00000000E+00
  0.00000000E+00  0.00000000E+00  0.00000000E+00
  0.00000000E+00  0.00000000E+00  0.00000000E+00
  0.00000000E+00  0.00000000E+00  0.00000000E+00
  0.00000000E+00  0.00000000E+00  0.00000000E+00
  0.00000000E+00  0.00000000E+00  0.00000000E+00
  0.00000000E+00  0.00000000E+00  0.00000000E+00
  0.00000000E+00  0.00000000E+00  0.00000000E+00
  0.00000000E+00  0.00000000E+00  0.00000000E+00
  0.00000000E+00  0.00000000E+00  0.00000000E+00
  0.00000000E+00  0.00000000E+00  0.00000000E+00
  0.00000000E+00  0.00000000E+00  0.00000000E+00
  0.00000000E+00  0.00000000E+00  0.00000000E+00
  0.00000000E+00  0.00000000E+00  0.00000000E+00
  0.00000000E+00  0.00000000E+00  0.00000000E+00
  0.00000000E+00  0.00000000E+00  0.00000000E+00
  0.00000000E+00  0.00000000E+00  0.00000000E+00
  0.00000000E+00  0.00000000E+00  0.00000000E+00
  0.00000000E+00  0.00000000E+00  0.00000000E+00
  0.00000000E+00  0.00000000E+00  0.00000000E+00
  0.00000000E+00  0.00000000E+00  0.00000000E+00
  0.00000000E+00  0.00000000E+00  0.00000000E+00
  0.00000000E+00  0.00000000E+00  0.00000000E+00
  0.00000000E+00  0.00000000E+00  0.00000000E+00
  0.00000000E+00  0.00000000E+00  0.00000000E+00
  0.00000000E+00  0.00000000E+00  0.00000000E+00
  0.00000000E+00  0.00000000E+00  0.00000000E+00
  0.00000000E+00  0.00000000E+00  0.00000000E+00
  0.00000000E+00  0.00000000E+00  0.00000000E+00
  0.00000000E+00  0.00000000E+00  0.00000000E+00
  0.00000000E+00  0.00000000E+00  0.00000000E+00
  0.00000000E+00  0.00000000E+00  0.00000000E+00
  0.00000000E+00  0.00000000E+00  0.00000000E+00
  0.00000000E+00  0.00000000E+00  0.00000000E+00
  0.00000000E+00  0.00000000E+00  0.00000000E+00
  0.00000000E+00  0.00000000E+00  0.00000000E+00
  0.00000000E+00  0.00000000E+00  0.00000000E+00
  0.00000000E+00  0.00000000E+00  0.00000000E+00
  0.00000000E+00  0.00000000E+00  0.00000000E+00
  0.00000000E+00  0.00000000E+00  0.00000000E+00
  0.00000000E+00  0.00000000E+00  0.00000000E+00
  0.00000000E+00  0.00000000E+00  0.00000000E+00
  0.00000000E+00  0.00000000E+00  0.00000000E+00
  0.00000000E+00  0.00000000E+00  0.00000000E+00
  0.00000000E+00  0.00000000E+00  0.00000000E+00
  0.00000000E+00  0.00000000E+00  0.00000000E+00
  0.00000000E+00  0.00000000E+00  0.00000000E+00
  0.00000000E+00  0.00000000E+00  0.00000000E+00
  0.00000000E+00  0.00000000E+00  0.00000000E+00
  0.00000000E+00  0.00000000E+00  0.00000000E+00
  0.00000000E+00  0.00000000E+00  0.00000000E+00
  0.00000000E+00  0.00000000E+00  0.00000000E+00
  0.00000000E+00  0.00000000E+00  0.00000000E+00
  0.00000000E+00  0.00000000E+00  0.00000000E+00
  0.00000000E+00  0.00000000E+00  0.00000000E+00
  0.00000000E+00  0.00000000E+00  0.00000000E+00
  0.00000000E+00  0.00000000E+00  0.00000000E+00
  0.00000000E+00  0.00000000E+00  0.00000000E+00
  0.00000000E+00  0.00000000E+00  0.00000000E+00
  0.00000000E+00  0.00000000E+00  0.00000000E+00
  0.00000000E+00  0.00000000E+00  0.00000000E+00
  0.00000000E+00  0.00000000E+00  0.00000000E+00
  0.00000000E+00  0.00000000E+00  0.00000000E+00
  0.00000000E+00  0.00000000E+00  0.00000000E+00
  0.00000000E+00  0.00000000E+00  0.00000000E+00
  0.00000000E+00  0.00000000E+00  0.00000000E+00
  0.00000000E+00  0.00000000E+00  0.00000000E+00
  0.00000000E+00  0.00000000E+00  0.00000000E+00
  0.00000000E+00  0.00000000E+00  0.00000000E+00
  0.00000000E+00  0.00000000E+00  0.00000000E+00
  0.00000000E+00  0.00000000E+00  0.00000000E+00
  0.00000000E+00  0.00000000E+00  0.00000000E+00
  0.00000000E+00  0.00000000E+00  0.00000000E+00
  0.00000000E+00  0.00000000E+00  0.00000000E+00
  0.00000000E+00  0.00000000E+00  0.00000000E+00
  0.00000000E+00  0.00000000E+00  0.00000000E+00
  0.00000000E+00  0.00000000E+00  0.00000000E+00
  0.00000000E+00  0.00000000E+00  0.00000000E+00
  0.00000000E+00  0.00000000E+00  0.00000000E+00
  0.00000000E+00  0.00000000E+00  0.00000000E+00
  0.00000000E+00  0.00000000E+00  0.00000000E+00
  0.00000000E+00  0.00000000E+00  0.00000000E+00
  0.00000000E+00  0.00000000E+00  0.00000000E+00
  0.00000000E+00  0.00000000E+00  0.00000000E+00
  0.00000000E+00  0.00000000E+00  0.00000000E+00
  0.00000000E+00  0.00000000E+00  0.00000000E+00
  0.00000000E+00  0.00000000E+00  0.00000000E+00
  0.00000000E+00  0.00000000E+00  0.00000000E+00
  0.00000000E+00  0.00000000E+00  0.00000000E+00
  0.00000000E+00  0.00000000E+00  0.00000000E+00
  0.00000000E+00  0.00000000E+00  0.00000000E+00
  0.00000000E+00  0.00000000E+00  0.00000000E+00
  0.00000000E+00  0.00000000E+00  0.00000000E+00
  0.00000000E+00  0.00000000E+00  0.00000000E+00
  0.00000000E+00  0.00000000E+00  0.00000000E+00
  0.00000000E+00  0.00000000E+00  0.00000000E+00
  0.00000000E+00  0.00000000E+00  0.00000000E+00
  0.00000000E+00  0.00000000E+00  0.00000000E+00
  0.00000000E+00  0.00000000E+00  0.00000000E+00
  0.00000000E+00  0.00000000E+00  0.00000000E+00
  0.00000000E+00  0.00000000E+00  0.00000000E+00
  0.00000000E+00  0.00000000E+00  0.00000000E+00
  0.00000000E+00  0.00000000E+00  0.00000000E+00
  0.00000000E+00  0.00000000E+00  0.00000000E+00
  0.00000000E+00  0.00000000E+00  0.00000000E+00
  0.00000000E+00  0.00000000E+00  0.00000000E+00
  0.00000000E+00  0.00000000E+00  0.00000000E+00
  0.00000000E+00  0.00000000E+00  0.00000000E+00
  0.00000000E+00  0.00000000E+00  0.00000000E+00
  0.00000000E+00  0.00000000E+00  0.00000000E+00
  0.00000000E+00  0.00000000E+00  0.00000000E+00
  0.00000000E+00  0.00000000E+00  0.00000000E+00
  0.00000000E+00  0.00000000E+00  0.00000000E+00
  0.00000000E+00  0.00000000E+00  0.00000000E+00
  0.00000000E+00  0.00000000E+00  0.00000000E+00
  0.00000000E+00  0.00000000E+00  0.00000000E+00
  0.00000000E+00  0.00000000E+00  0.00000000E+00
  0.00000000E+00  0.00000000E+00  0.00000000E+00
  0.00000000E+00  0.00000000E+00  0.00000000E+00
  0.00000000E+00  0.00000000E+00  0.00000000E+00
  0.00000000E+00  0.00000000E+00  0.00000000E+00
  0.00000000E+00  0.00000000E+00  0.00000000E+00
  0.00000000E+00  0.00000000E+00  0.00000000E+00
  0.00000000E+00  0.00000000E+00  0.00000000E+00
  0.00000000E+00  0.00000000E+00  0.00000000E+00
  0.00000000E+00  0.00000000E+00  0.00000000E+00
  0.00000000E+00  0.00000000E+00  0.00000000E+00
