Loading vasp5/5.4/impi-5/intel-16/5.4.1.3-11
  Loading requirement: intel/19/19.1.3 impi/2019/2019.Update.9
Loading ase/3.9/3.9.1-1
  Loading requirement: python-intel/2.7/2018/2.7.14-2018.3.039-1
[0] MPI startup(): I_MPI_HYDRA_UUID environment variable is not supported.
[0] MPI startup(): Similar variables:
	 I_MPI_HYDRA_DEBUG
	 I_MPI_HYDRA_ENV
	 I_MPI_HYDRA_RMK
	 I_MPI_HYDRA_IFACE
	 I_MPI_HYDRA_DEMUX
[0] MPI startup(): I_MPI_PM environment variable is not supported.
[0] MPI startup(): Similar variables:
	 I_MPI_PIN
	 I_MPI_SHM
	 I_MPI_PLATFORM
	 I_MPI_PMI
	 I_MPI_PMI_LIBRARY
[0] MPI startup(): I_MPI_RANK_CMD environment variable is not supported.
[0] MPI startup(): I_MPI_CMD environment variable is not supported.
[0] MPI startup(): Similar variables:
	 I_MPI_CC
[0] MPI startup(): To check the list of supported variables, use the impi_info utility or refer to https://software.intel.com/en-us/mpi-library/documentation/get-started.
 running on   32 total cores
 distrk:  each k-point on   32 cores,    1 groups
 distr:  one band on    1 cores,   32 groups
 using from now: INCAR     
 vasp.5.4.1 05Feb16 (build Feb 01 2017 11:31:40) complex                        
  
 POSCAR found type information on POSCAR  Mo W  S  Se
 POSCAR found :  4 types and     150 ions
 scaLAPACK will be used

 ----------------------------------------------------------------------------- 
|                                                                             |
|           W    W    AA    RRRRR   N    N  II  N    N   GGGG   !!!           |
|           W    W   A  A   R    R  NN   N  II  NN   N  G    G  !!!           |
|           W    W  A    A  R    R  N N  N  II  N N  N  G       !!!           |
|           W WW W  AAAAAA  RRRRR   N  N N  II  N  N N  G  GGG   !            |
|           WW  WW  A    A  R   R   N   NN  II  N   NN  G    G                |
|           W    W  A    A  R    R  N    N  II  N    N   GGGG   !!!           |
|                                                                             |
|      For optimal performance we recommend to set                            |
|        NCORE= 4 - approx SQRT( number of cores)                             |
|      NCORE specifies how many cores store one orbital (NPAR=cpu/NCORE).     |
|      This setting can  greatly improve the performance of VASP for DFT.     |
|      The default, NPAR=number of cores might be grossly inefficient         |
|      on modern multi-core architectures or massively parallel machines.     |
|      Do your own testing !!!!                                               |
|      Unfortunately you need to use the default for GW and RPA calculations. |
|      (for HF NCORE is supported but not extensively tested yet)             |
|                                                                             |
 ----------------------------------------------------------------------------- 


 ----------------------------------------------------------------------------- 
|                                                                             |
|  ADVICE TO THIS USER RUNNING 'VASP/VAMP'   (HEAR YOUR MASTER'S VOICE ...):  |
|                                                                             |
|      You have a (more or less) 'large supercell' and for larger cells       |
|      it might be more efficient to use real space projection operators      |
|      So try LREAL= Auto  in the INCAR   file.                               |
|      Mind: If you want to do a very accurate calculations keep the          |
|      reciprocal projection scheme          (i.e. LREAL=.FALSE.)             |
|                                                                             |
 ----------------------------------------------------------------------------- 

 LDA part: xc-table for Pade appr. of Perdew
 POSCAR, INCAR and KPOINTS ok, starting setup
 FFT: planning ...
 WAVECAR not read
 augmentation electrons  0.144764645828521     
 soft         electrons  0.000000000000000E+000
 augmentation electrons  0.144764645828521     
 soft         electrons  0.000000000000000E+000
 augmentation electrons  0.144764645828521     
 soft         electrons  0.000000000000000E+000
 augmentation electrons  0.144764645828521     
 soft         electrons  0.000000000000000E+000
 augmentation electrons  0.144764645828521     
 soft         electrons  0.000000000000000E+000
 augmentation electrons  0.144764645828521     
 soft         electrons  0.000000000000000E+000
 augmentation electrons  0.144764645828521     
 soft         electrons  0.000000000000000E+000
 augmentation electrons  0.144764645828521     
 soft         electrons  0.000000000000000E+000
 augmentation electrons  0.144764645828521     
 soft         electrons  0.000000000000000E+000
 augmentation electrons  0.144764645828521     
 soft         electrons  0.000000000000000E+000
 augmentation electrons  0.144764645828521     
 augmentation electrons  0.144764645828521     
 soft         electrons  0.000000000000000E+000
 augmentation electrons  0.144764645828521     
 soft         electrons  0.000000000000000E+000
 augmentation electrons  0.144764645828521     
 soft         electrons  0.000000000000000E+000
 augmentation electrons  0.144764645828521     
 soft         electrons  0.000000000000000E+000
 augmentation electrons  0.144764645828521     
 soft         electrons  0.000000000000000E+000
 augmentation electrons  0.144764645828521     
 soft         electrons  0.000000000000000E+000
 augmentation electrons  0.144764645828521     
 soft         electrons  0.000000000000000E+000
 augmentation electrons  0.144764645828521     
 soft         electrons  0.000000000000000E+000
 augmentation electrons  0.144764645828521     
 soft         electrons  0.000000000000000E+000
 augmentation electrons  0.144764645828521     
 soft         electrons  0.000000000000000E+000
 augmentation electrons  0.144764645828521     
 soft         electrons  0.000000000000000E+000
 augmentation electrons  0.144764645828521     
 soft         electrons  0.000000000000000E+000
 augmentation electrons  0.144764645828521     
 augmentation electrons  0.144764645828521     
 soft         electrons  0.000000000000000E+000
 soft         electrons  0.000000000000000E+000
 augmentation electrons  0.144764645828521     
 soft         electrons  0.000000000000000E+000
 augmentation electrons  0.144764645828521     
 soft         electrons  0.000000000000000E+000
 augmentation electrons  0.144764645828521     
 soft         electrons  0.000000000000000E+000
 augmentation electrons  0.144764645828521     
 soft         electrons  0.000000000000000E+000
 augmentation electrons  0.144764645828521     
 soft         electrons  0.000000000000000E+000
 augmentation electrons  0.144764645828521     
 soft         electrons  0.000000000000000E+000
 augmentation electrons  0.144764645828521     
 soft         electrons  0.000000000000000E+000
 soft         electrons  0.000000000000000E+000
 total        electrons  0.144764645828521     
 total        electrons  0.144764645828521     
 total        electrons  0.144764645828521     
 total        electrons  0.144764645828521     
 total        electrons  0.144764645828521     
 total        electrons  0.144764645828521     
 total        electrons  0.144764645828521     
 total        electrons  0.144764645828521     
 total        electrons  0.144764645828521     
 total        electrons  0.144764645828521     
 total        electrons  0.144764645828521     
 total        electrons  0.144764645828521     
 total        electrons  0.144764645828521     
 total        electrons  0.144764645828521     
 total        electrons  0.144764645828521     
 total        electrons  0.144764645828521     
 total        electrons  0.144764645828521     
 total        electrons  0.144764645828521     
 total        electrons  0.144764645828521     
 total        electrons  0.144764645828521     
 total        electrons  0.144764645828521     
 total        electrons  0.144764645828521     
 total        electrons  0.144764645828521     
 total        electrons  0.144764645828521     
 total        electrons  0.144764645828521     
 total        electrons  0.144764645828521     
 total        electrons  0.144764645828521     
 total        electrons  0.144764645828521     
 total        electrons  0.144764645828521     
 total        electrons  0.144764645828521     
 total        electrons  0.144764645828521     
 total        electrons  0.144764645828521     
 augmentation electrons -1.605851525315957E-002
 augmentation electrons -1.605851525315957E-002
 soft         electrons  0.000000000000000E+000
 augmentation electrons -1.605851525315957E-002
 soft         electrons  0.000000000000000E+000
 augmentation electrons -1.605851525315957E-002
 soft         electrons  0.000000000000000E+000
 augmentation electrons -1.605851525315957E-002
 soft         electrons  0.000000000000000E+000
 augmentation electrons -1.605851525315957E-002
 soft         electrons  0.000000000000000E+000
 augmentation electrons -1.605851525315957E-002
 soft         electrons  0.000000000000000E+000
 augmentation electrons -1.605851525315957E-002
 soft         electrons  0.000000000000000E+000
 augmentation electrons -1.605851525315957E-002
 soft         electrons  0.000000000000000E+000
 augmentation electrons -1.605851525315957E-002
 soft         electrons  0.000000000000000E+000
 augmentation electrons -1.605851525315957E-002
 soft         electrons  0.000000000000000E+000
 augmentation electrons -1.605851525315957E-002
 soft         electrons  0.000000000000000E+000
 augmentation electrons -1.605851525315957E-002
 soft         electrons  0.000000000000000E+000
 augmentation electrons -1.605851525315957E-002
 soft         electrons  0.000000000000000E+000
 augmentation electrons -1.605851525315957E-002
 soft         electrons  0.000000000000000E+000
 augmentation electrons -1.605851525315957E-002
 soft         electrons  0.000000000000000E+000
 augmentation electrons -1.605851525315957E-002
 soft         electrons  0.000000000000000E+000
 augmentation electrons -1.605851525315957E-002
 soft         electrons  0.000000000000000E+000
 augmentation electrons -1.605851525315957E-002
 soft         electrons  0.000000000000000E+000
 augmentation electrons -1.605851525315957E-002
 soft         electrons  0.000000000000000E+000
 augmentation electrons -1.605851525315957E-002
 soft         electrons  0.000000000000000E+000
 augmentation electrons -1.605851525315957E-002
 soft         electrons  0.000000000000000E+000
 augmentation electrons -1.605851525315957E-002
 soft         electrons  0.000000000000000E+000
 augmentation electrons -1.605851525315957E-002
 soft         electrons  0.000000000000000E+000
 augmentation electrons -1.605851525315957E-002
 soft         electrons  0.000000000000000E+000
 augmentation electrons -1.605851525315957E-002
 soft         electrons  0.000000000000000E+000
 augmentation electrons -1.605851525315957E-002
 soft         electrons  0.000000000000000E+000
 augmentation electrons -1.605851525315957E-002
 soft         electrons  0.000000000000000E+000
 augmentation electrons -1.605851525315957E-002
 soft         electrons  0.000000000000000E+000
 soft         electrons  0.000000000000000E+000
 augmentation electrons -1.605851525315957E-002
 soft         electrons  0.000000000000000E+000
 augmentation electrons -1.605851525315957E-002
 soft         electrons  0.000000000000000E+000
 augmentation electrons -1.605851525315957E-002
 soft         electrons  0.000000000000000E+000
 total        electrons -1.605851525315957E-002
 total        electrons -1.605851525315957E-002
 total        electrons -1.605851525315957E-002
 total        electrons -1.605851525315957E-002
 total        electrons -1.605851525315957E-002
 total        electrons -1.605851525315957E-002
 total        electrons -1.605851525315957E-002
 total        electrons -1.605851525315957E-002
 total        electrons -1.605851525315957E-002
 total        electrons -1.605851525315957E-002
 total        electrons -1.605851525315957E-002
 total        electrons -1.605851525315957E-002
 total        electrons -1.605851525315957E-002
 total        electrons -1.605851525315957E-002
 total        electrons -1.605851525315957E-002
 total        electrons -1.605851525315957E-002
 total        electrons -1.605851525315957E-002
 total        electrons -1.605851525315957E-002
 total        electrons -1.605851525315957E-002
 total        electrons -1.605851525315957E-002
 total        electrons -1.605851525315957E-002
 total        electrons -1.605851525315957E-002
 total        electrons -1.605851525315957E-002
 total        electrons -1.605851525315957E-002
 total        electrons -1.605851525315957E-002
 total        electrons -1.605851525315957E-002
 total        electrons -1.605851525315957E-002
 total        electrons -1.605851525315957E-002
 total        electrons -1.605851525315957E-002
 total        electrons -1.605851525315957E-002
 total        electrons -1.605851525315957E-002
 total        electrons -1.605851525315957E-002
 augmentation electrons   4572.99953943041     
 soft         electrons  0.000000000000000E+000
 augmentation electrons   4572.99953943041     
 soft         electrons  0.000000000000000E+000
 augmentation electrons   4572.99953943041     
 soft         electrons  0.000000000000000E+000
 augmentation electrons   4572.99953943041     
 augmentation electrons   4572.99953943041     
 soft         electrons  0.000000000000000E+000
 augmentation electrons   4572.99953943041     
 soft         electrons  0.000000000000000E+000
 augmentation electrons   4572.99953943041     
 soft         electrons  0.000000000000000E+000
 augmentation electrons   4572.99953943041     
 soft         electrons  0.000000000000000E+000
 augmentation electrons   4572.99953943041     
 soft         electrons  0.000000000000000E+000
 augmentation electrons   4572.99953943041     
 soft         electrons  0.000000000000000E+000
 augmentation electrons   4572.99953943041     
 soft         electrons  0.000000000000000E+000
 augmentation electrons   4572.99953943041     
 soft         electrons  0.000000000000000E+000
 augmentation electrons   4572.99953943041     
 soft         electrons  0.000000000000000E+000
 augmentation electrons   4572.99953943041     
 soft         electrons  0.000000000000000E+000
 augmentation electrons   4572.99953943041     
 soft         electrons  0.000000000000000E+000
 augmentation electrons   4572.99953943041     
 soft         electrons  0.000000000000000E+000
 augmentation electrons   4572.99953943041     
 soft         electrons  0.000000000000000E+000
 augmentation electrons   4572.99953943041     
 soft         electrons  0.000000000000000E+000
 augmentation electrons   4572.99953943041     
 soft         electrons  0.000000000000000E+000
 augmentation electrons   4572.99953943041     
 soft         electrons  0.000000000000000E+000
 augmentation electrons   4572.99953943041     
 soft         electrons  0.000000000000000E+000
 augmentation electrons   4572.99953943041     
 soft         electrons  0.000000000000000E+000
 augmentation electrons   4572.99953943041     
 soft         electrons  0.000000000000000E+000
 augmentation electrons   4572.99953943041     
 soft         electrons  0.000000000000000E+000
 augmentation electrons   4572.99953943041     
 soft         electrons  0.000000000000000E+000
 augmentation electrons   4572.99953943041     
 soft         electrons  0.000000000000000E+000
 augmentation electrons   4572.99953943041     
 soft         electrons  0.000000000000000E+000
 augmentation electrons   4572.99953943041     
 soft         electrons  0.000000000000000E+000
 augmentation electrons   4572.99953943041     
 soft         electrons  0.000000000000000E+000
 augmentation electrons   4572.99953943041     
 soft         electrons  0.000000000000000E+000
 augmentation electrons   4572.99953943041     
 soft         electrons  0.000000000000000E+000
 soft         electrons  0.000000000000000E+000
 augmentation electrons   4572.99953943041     
 soft         electrons  0.000000000000000E+000
 total        electrons   4572.99953943041     
 total        electrons   4572.99953943041     
 total        electrons   4572.99953943041     
 total        electrons   4572.99953943041     
 total        electrons   4572.99953943041     
 total        electrons   4572.99953943041     
 total        electrons   4572.99953943041     
 total        electrons   4572.99953943041     
 total        electrons   4572.99953943041     
 total        electrons   4572.99953943041     
 total        electrons   4572.99953943041     
 total        electrons   4572.99953943041     
 total        electrons   4572.99953943041     
 total        electrons   4572.99953943041     
 total        electrons   4572.99953943041     
 total        electrons   4572.99953943041     
 total        electrons   4572.99953943041     
 total        electrons   4572.99953943041     
 total        electrons   4572.99953943041     
 total        electrons   4572.99953943041     
 total        electrons   4572.99953943041     
 total        electrons   4572.99953943041     
 total        electrons   4572.99953943041     
 total        electrons   4572.99953943041     
 total        electrons   4572.99953943041     
 total        electrons   4572.99953943041     
 total        electrons   4572.99953943041     
 total        electrons   4572.99953943041     
 total        electrons   4572.99953943041     
 total        electrons   4572.99953943041     
 total        electrons   4572.99953943041     
 total        electrons   4572.99953943041     
 augmentation electrons   4572.99953943041     
 soft         electrons  0.000000000000000E+000
 augmentation electrons   4572.99953943041     
 soft         electrons  0.000000000000000E+000
 augmentation electrons   4572.99953943041     
 soft         electrons  0.000000000000000E+000
 augmentation electrons   4572.99953943041     
 soft         electrons  0.000000000000000E+000
 augmentation electrons   4572.99953943041     
 soft         electrons  0.000000000000000E+000
 augmentation electrons   4572.99953943041     
 soft         electrons  0.000000000000000E+000
 augmentation electrons   4572.99953943041     
 soft         electrons  0.000000000000000E+000
 augmentation electrons   4572.99953943041     
 soft         electrons  0.000000000000000E+000
 augmentation electrons   4572.99953943041     
 soft         electrons  0.000000000000000E+000
 augmentation electrons   4572.99953943041     
 soft         electrons  0.000000000000000E+000
 augmentation electrons   4572.99953943041     
 soft         electrons  0.000000000000000E+000
 augmentation electrons   4572.99953943041     
 soft         electrons  0.000000000000000E+000
 augmentation electrons   4572.99953943041     
 soft         electrons  0.000000000000000E+000
 augmentation electrons   4572.99953943041     
 soft         electrons  0.000000000000000E+000
 augmentation electrons   4572.99953943041     
 soft         electrons  0.000000000000000E+000
 augmentation electrons   4572.99953943041     
 soft         electrons  0.000000000000000E+000
 augmentation electrons   4572.99953943041     
 soft         electrons  0.000000000000000E+000
 augmentation electrons   4572.99953943041     
 soft         electrons  0.000000000000000E+000
 augmentation electrons   4572.99953943041     
 soft         electrons  0.000000000000000E+000
 augmentation electrons   4572.99953943041     
 soft         electrons  0.000000000000000E+000
 augmentation electrons   4572.99953943041     
 soft         electrons  0.000000000000000E+000
 augmentation electrons   4572.99953943041     
 soft         electrons  0.000000000000000E+000
 augmentation electrons   4572.99953943041     
 soft         electrons  0.000000000000000E+000
 augmentation electrons   4572.99953943041     
 soft         electrons  0.000000000000000E+000
 augmentation electrons   4572.99953943041     
 soft         electrons  0.000000000000000E+000
 augmentation electrons   4572.99953943041     
 augmentation electrons   4572.99953943041     
 soft         electrons  0.000000000000000E+000
 augmentation electrons   4572.99953943041     
 soft         electrons  0.000000000000000E+000
 augmentation electrons   4572.99953943041     
 soft         electrons  0.000000000000000E+000
 soft         electrons  0.000000000000000E+000
 augmentation electrons   4572.99953943041     
 soft         electrons  0.000000000000000E+000
 augmentation electrons   4572.99953943041     
 soft         electrons  0.000000000000000E+000
 augmentation electrons   4572.99953943041     
 soft         electrons  0.000000000000000E+000
 total        electrons   4572.99953943041     
 total        electrons   4572.99953943041     
 total        electrons   4572.99953943041     
 total        electrons   4572.99953943041     
 total        electrons   4572.99953943041     
 total        electrons   4572.99953943041     
 total        electrons   4572.99953943041     
 total        electrons   4572.99953943041     
 total        electrons   4572.99953943041     
 total        electrons   4572.99953943041     
 total        electrons   4572.99953943041     
 total        electrons   4572.99953943041     
 total        electrons   4572.99953943041     
 total        electrons   4572.99953943041     
 total        electrons   4572.99953943041     
 total        electrons   4572.99953943041     
 total        electrons   4572.99953943041     
 total        electrons   4572.99953943041     
 total        electrons   4572.99953943041     
 total        electrons   4572.99953943041     
 total        electrons   4572.99953943041     
 total        electrons   4572.99953943041     
 total        electrons   4572.99953943041     
 total        electrons   4572.99953943041     
 total        electrons   4572.99953943041     
 total        electrons   4572.99953943041     
 total        electrons   4572.99953943041     
 total        electrons   4572.99953943041     
 total        electrons   4572.99953943041     
 total        electrons   4572.99953943041     
 total        electrons   4572.99953943041     
 total        electrons   4572.99953943041     
 entering main loop
       N       E                     dE             d eps       ncg     rms          rms(c)
DAV:   1     0.103980931485E+05    0.10398E+05   -0.56167E+05 29664   0.128E+03
DAV:   2    -0.631448712677E+02   -0.10461E+05   -0.10066E+05 30976   0.327E+02
DAV:   3    -0.107889748775E+04   -0.10158E+04   -0.99624E+03 31040   0.930E+01
DAV:   4    -0.111821141430E+04   -0.39314E+02   -0.38792E+02 32576   0.190E+01
DAV:   5    -0.111938930247E+04   -0.11779E+01   -0.11717E+01 33536   0.335E+00    0.665E+01
DAV:   6    -0.109478572682E+04    0.24604E+02   -0.82167E+01 34176   0.141E+01    0.238E+01
DAV:   7    -0.108609436161E+04    0.86914E+01   -0.54086E+01 29440   0.811E+00    0.135E+01
DAV:   8    -0.108389151392E+04    0.22028E+01   -0.15151E+01 30560   0.629E+00    0.920E+00
DAV:   9    -0.108322276560E+04    0.66875E+00   -0.10221E+01 30400   0.513E+00    0.595E+00
DAV:  10    -0.108258435325E+04    0.63841E+00   -0.40616E+00 29696   0.284E+00    0.327E+00
DAV:  11    -0.108242982759E+04    0.15453E+00   -0.10737E+00 30112   0.108E+00    0.153E+00
DAV:  12    -0.108238686568E+04    0.42962E-01   -0.32265E-01 30752   0.701E-01    0.612E-01
DAV:  13    -0.108238763442E+04   -0.76874E-03   -0.64613E-02 29344   0.301E-01    0.381E-01
DAV:  14    -0.108238576387E+04    0.18705E-02   -0.16062E-02 30112   0.118E-01    0.206E-01
DAV:  15    -0.108238575864E+04    0.52282E-05   -0.41909E-03 31584   0.837E-02    0.777E-02
DAV:  16    -0.108238579946E+04   -0.40816E-04   -0.93057E-04 29536   0.389E-02    0.456E-02
DAV:  17    -0.108238573452E+04    0.64939E-04   -0.34908E-04 29440   0.179E-02    0.208E-02
DAV:  18    -0.108238572688E+04    0.76392E-05   -0.59573E-05 29440   0.784E-03    0.909E-03
DAV:  19    -0.108238572908E+04   -0.21984E-05   -0.11184E-05 28032   0.333E-03    0.460E-03
DAV:  20    -0.108238572448E+04    0.45948E-05   -0.18487E-06 24736   0.210E-03    0.188E-03
DAV:  21    -0.108238572214E+04    0.23431E-05    0.49358E-07 14528   0.893E-04    0.118E-03
DAV:  22    -0.108238572262E+04   -0.48321E-06    0.79979E-07 14336   0.504E-04
   1 F= -.11332765E+04 E0= -.11332765E+04  d E =-.364418E-11  mag=     0.0000
 writing wavefunctions
 augmentation electrons   120.298537212653     
 soft         electrons   1079.88776214640     
 augmentation electrons   120.298537212653     
 soft         electrons   1079.88776214640     
 augmentation electrons   120.298537212653     
 soft         electrons   1079.88776214640     
 augmentation electrons   120.298537212653     
 augmentation electrons   120.298537212653     
 soft         electrons   1079.88776214640     
 augmentation electrons   120.298537212653     
 soft         electrons   1079.88776214640     
 augmentation electrons   120.298537212653     
 soft         electrons   1079.88776214640     
 augmentation electrons   120.298537212653     
 soft         electrons   1079.88776214640     
 augmentation electrons   120.298537212653     
 soft         electrons   1079.88776214640     
 augmentation electrons   120.298537212653     
 soft         electrons   1079.88776214640     
 augmentation electrons   120.298537212653     
 soft         electrons   1079.88776214640     
 augmentation electrons   120.298537212653     
 soft         electrons   1079.88776214640     
 augmentation electrons   120.298537212653     
 soft         electrons   1079.88776214640     
 augmentation electrons   120.298537212653     
 soft         electrons   1079.88776214640     
 augmentation electrons   120.298537212653     
 soft         electrons   1079.88776214640     
 augmentation electrons   120.298537212653     
 soft         electrons   1079.88776214640     
 augmentation electrons   120.298537212653     
 soft         electrons   1079.88776214640     
 augmentation electrons   120.298537212653     
 soft         electrons   1079.88776214640     
 augmentation electrons   120.298537212653     
 soft         electrons   1079.88776214640     
 augmentation electrons   120.298537212653     
 soft         electrons   1079.88776214640     
 augmentation electrons   120.298537212653     
 soft         electrons   1079.88776214640     
 augmentation electrons   120.298537212653     
 soft         electrons   1079.88776214640     
 augmentation electrons   120.298537212653     
 soft         electrons   1079.88776214640     
 augmentation electrons   120.298537212653     
 soft         electrons   1079.88776214640     
 augmentation electrons   120.298537212653     
 soft         electrons   1079.88776214640     
 augmentation electrons   120.298537212653     
 soft         electrons   1079.88776214640     
 augmentation electrons   120.298537212653     
 soft         electrons   1079.88776214640     
 augmentation electrons   120.298537212653     
 soft         electrons   1079.88776214640     
 augmentation electrons   120.298537212653     
 soft         electrons   1079.88776214640     
 augmentation electrons   120.298537212653     
 soft         electrons   1079.88776214640     
 augmentation electrons   120.298537212653     
 soft         electrons   1079.88776214640     
 soft         electrons   1079.88776214640     
 augmentation electrons   120.298537212653     
 soft         electrons   1079.88776214640     
 total        electrons   1200.18629935906     
 total        electrons   1200.18629935906     
 total        electrons   1200.18629935906     
 total        electrons   1200.18629935906     
 total        electrons   1200.18629935906     
 total        electrons   1200.18629935906     
 total        electrons   1200.18629935906     
 total        electrons   1200.18629935906     
 total        electrons   1200.18629935906     
 total        electrons   1200.18629935906     
 total        electrons   1200.18629935906     
 total        electrons   1200.18629935906     
 total        electrons   1200.18629935906     
 total        electrons   1200.18629935906     
 total        electrons   1200.18629935906     
 total        electrons   1200.18629935906     
 total        electrons   1200.18629935906     
 total        electrons   1200.18629935906     
 total        electrons   1200.18629935906     
 total        electrons   1200.18629935906     
 total        electrons   1200.18629935906     
 total        electrons   1200.18629935906     
 total        electrons   1200.18629935906     
 total        electrons   1200.18629935906     
 total        electrons   1200.18629935906     
 total        electrons   1200.18629935906     
 total        electrons   1200.18629935906     
 total        electrons   1200.18629935906     
 total        electrons   1200.18629935906     
 total        electrons   1200.18629935906     
 total        electrons   1200.18629935906     
 total        electrons   1200.18629935906     
 augmentation electrons -2.570112385149881E-006
 soft         electrons   1079.88776214640     
 augmentation electrons -2.570112385149881E-006
 soft         electrons   1079.88776214640     
 augmentation electrons -2.570112385149881E-006
 soft         electrons   1079.88776214640     
 augmentation electrons -2.570112385149881E-006
 soft         electrons   1079.88776214640     
 augmentation electrons -2.570112385149881E-006
 soft         electrons   1079.88776214640     
 augmentation electrons -2.570112385149881E-006
 soft         electrons   1079.88776214640     
 augmentation electrons -2.570112385149881E-006
 soft         electrons   1079.88776214640     
 augmentation electrons -2.570112385149881E-006
 soft         electrons   1079.88776214640     
 augmentation electrons -2.570112385149881E-006
 soft         electrons   1079.88776214640     
 augmentation electrons -2.570112385149881E-006
 soft         electrons   1079.88776214640     
 augmentation electrons -2.570112385149881E-006
 soft         electrons   1079.88776214640     
 augmentation electrons -2.570112385149881E-006
 soft         electrons   1079.88776214640     
 augmentation electrons -2.570112385149881E-006
 soft         electrons   1079.88776214640     
 augmentation electrons -2.570112385149881E-006
 soft         electrons   1079.88776214640     
 augmentation electrons -2.570112385149881E-006
 soft         electrons   1079.88776214640     
 augmentation electrons -2.570112385149881E-006
 soft         electrons   1079.88776214640     
 augmentation electrons -2.570112385149881E-006
 soft         electrons   1079.88776214640     
 augmentation electrons -2.570112385149881E-006
 soft         electrons   1079.88776214640     
 augmentation electrons -2.570112385149881E-006
 soft         electrons   1079.88776214640     
 augmentation electrons -2.570112385149881E-006
 augmentation electrons -2.570112385149881E-006
 soft         electrons   1079.88776214640     
 augmentation electrons -2.570112385149881E-006
 soft         electrons   1079.88776214640     
 augmentation electrons -2.570112385149881E-006
 soft         electrons   1079.88776214640     
 augmentation electrons -2.570112385149881E-006
 soft         electrons   1079.88776214640     
 augmentation electrons -2.570112385149881E-006
 soft         electrons   1079.88776214640     
 augmentation electrons -2.570112385149881E-006
 soft         electrons   1079.88776214640     
 augmentation electrons -2.570112385149881E-006
 soft         electrons   1079.88776214640     
 augmentation electrons -2.570112385149881E-006
 soft         electrons   1079.88776214640     
 augmentation electrons -2.570112385149881E-006
 soft         electrons   1079.88776214640     
 augmentation electrons -2.570112385149881E-006
 soft         electrons   1079.88776214640     
 augmentation electrons -2.570112385149881E-006
 soft         electrons   1079.88776214640     
 soft         electrons   1079.88776214640     
 augmentation electrons -2.570112385149881E-006
 soft         electrons   1079.88776214640     
 total        electrons  3.184963846851692E-008
 total        electrons  3.184963846851692E-008
 total        electrons  3.184963846851692E-008
 total        electrons  3.184963846851692E-008
 total        electrons  3.184963846851692E-008
 total        electrons  3.184963846851692E-008
 total        electrons  3.184963846851692E-008
 total        electrons  3.184963846851692E-008
 total        electrons  3.184963846851692E-008
 total        electrons  3.184963846851692E-008
 total        electrons  3.184963846851692E-008
 total        electrons  3.184963846851692E-008
 total        electrons  3.184963846851692E-008
 total        electrons  3.184963846851692E-008
 total        electrons  3.184963846851692E-008
 total        electrons  3.184963846851692E-008
 total        electrons  3.184963846851692E-008
 total        electrons  3.184963846851692E-008
 total        electrons  3.184963846851692E-008
 total        electrons  3.184963846851692E-008
 total        electrons  3.184963846851692E-008
 total        electrons  3.184963846851692E-008
 total        electrons  3.184963846851692E-008
 total        electrons  3.184963846851692E-008
 total        electrons  3.184963846851692E-008
 total        electrons  3.184963846851692E-008
 total        electrons  3.184963846851692E-008
 total        electrons  3.184963846851692E-008
 total        electrons  3.184963846851692E-008
 total        electrons  3.184963846851692E-008
 total        electrons  3.184963846851692E-008
 total        electrons  3.184963846851692E-008
