Surf-mp-2815                            
   1.00000000000000     
     1.5821896962143418   -2.7404322421065426    0.0000000000000000
     1.5821896962143418    2.7404322421065426    0.0000000000000000
     0.0000000000000000    0.0000000000000000   34.9626782706800157
   Mo   S 
     1     2
Direct
  0.6666669999999968  0.3333330000000032  0.1066470000000024
  0.3333330000000032  0.6666669999999968  0.0619896246597449
  0.3333330000000032  0.6666669999999968  0.1513053753402573
 
  0.00000000E+00  0.00000000E+00  0.00000000E+00
  0.00000000E+00  0.00000000E+00  0.00000000E+00
  0.00000000E+00  0.00000000E+00  0.00000000E+00
