SYSTEM = MoS2 Band + SOC (HR, N=120)
ISTART = 1
ICHARG = 11
ENCUT  = 600
EDIFF  = 1E-8
ISMEAR = 0
SIGMA  = 0.05
PREC   = Accurate
ALGO   = Normal
LREAL  = .FALSE.
LASPH  = .TRUE.
LSORBIT  = .TRUE.
GGA_COMPAT = .FALSE.
ISYM     = 0
SAXIS    = 0 0 1
IBRION = -1
NSW    = 0
ISIF   = 2
LDIPOL = .TRUE.
IDIPOL = 3
DIPOL  = 0.5 0.5 0.5
LWAVE = .FALSE.
LCHARG = .FALSE.
NWRITE = 3
NBANDS = 96
KPAR = 4
NCORE = 2
