MoS2 band path (SOC): Γ–K–M–Γ (120 pts/seg)
120
Line-mode
reciprocal
 0.000000 0.000000 0.0   ! Γ
 0.333333 0.333333 0.0   ! K

 0.333333 0.333333 0.0   ! K
 0.500000 0.000000 0.0   ! M

 0.500000 0.000000 0.0   ! M
 0.000000 0.000000 0.0   ! Γ
