k-points for band structure
121
Reciprocal
0.00000 0.00000 0.00000 1
0.01250 0.00000 0.00000 1
0.02500 0.00000 0.00000 1
0.03750 0.00000 0.00000 1
0.05000 0.00000 0.00000 1
0.06250 0.00000 0.00000 1
0.07500 0.00000 0.00000 1
0.08750 0.00000 0.00000 1
0.10000 0.00000 0.00000 1
0.11250 0.00000 0.00000 1
0.12500 0.00000 0.00000 1
0.13750 0.00000 0.00000 1
0.15000 0.00000 0.00000 1
0.16250 0.00000 0.00000 1
0.17500 0.00000 0.00000 1
0.18750 0.00000 0.00000 1
0.20000 0.00000 0.00000 1
0.21250 0.00000 0.00000 1
0.22500 0.00000 0.00000 1
0.23750 0.00000 0.00000 1
0.25000 0.00000 0.00000 1
0.26250 0.00000 0.00000 1
0.27500 0.00000 0.00000 1
0.28750 0.00000 0.00000 1
0.30000 0.00000 0.00000 1
0.31250 0.00000 0.00000 1
0.32500 0.00000 0.00000 1
0.33750 0.00000 0.00000 1
0.35000 0.00000 0.00000 1
0.36250 0.00000 0.00000 1
0.37500 0.00000 0.00000 1
0.38750 0.00000 0.00000 1
0.40000 0.00000 0.00000 1
0.41250 0.00000 0.00000 1
0.42500 0.00000 0.00000 1
0.43750 0.00000 0.00000 1
0.45000 0.00000 0.00000 1
0.46250 0.00000 0.00000 1
0.47500 0.00000 0.00000 1
0.48750 0.00000 0.00000 1
0.50000 0.00000 0.00000 1
0.49583 0.00833 0.00000 1
0.49167 0.01667 0.00000 1
0.48750 0.02500 0.00000 1
0.48333 0.03333 0.00000 1
0.47917 0.04167 0.00000 1
0.47500 0.05000 0.00000 1
0.47083 0.05833 0.00000 1
0.46667 0.06667 0.00000 1
0.46250 0.07500 0.00000 1
0.45833 0.08333 0.00000 1
0.45417 0.09167 0.00000 1
0.45000 0.10000 0.00000 1
0.44583 0.10833 0.00000 1
0.44167 0.11667 0.00000 1
0.43750 0.12500 0.00000 1
0.43333 0.13333 0.00000 1
0.42917 0.14167 0.00000 1
0.42500 0.15000 0.00000 1
0.42083 0.15833 0.00000 1
0.41667 0.16667 0.00000 1
0.41250 0.17500 0.00000 1
0.40833 0.18333 0.00000 1
0.40417 0.19167 0.00000 1
0.40000 0.20000 0.00000 1
0.39583 0.20833 0.00000 1
0.39167 0.21667 0.00000 1
0.38750 0.22500 0.00000 1
0.38333 0.23333 0.00000 1
0.37917 0.24167 0.00000 1
0.37500 0.25000 0.00000 1
0.37083 0.25833 0.00000 1
0.36667 0.26667 0.00000 1
0.36250 0.27500 0.00000 1
0.35833 0.28333 0.00000 1
0.35417 0.29167 0.00000 1
0.35000 0.30000 0.00000 1
0.34583 0.30833 0.00000 1
0.34167 0.31667 0.00000 1
0.33750 0.32500 0.00000 1
0.33333 0.33333 0.00000 1
0.32500 0.32500 0.00000 1
0.31667 0.31667 0.00000 1
0.30833 0.30833 0.00000 1
0.30000 0.30000 0.00000 1
0.29167 0.29167 0.00000 1
0.28333 0.28333 0.00000 1
0.27500 0.27500 0.00000 1
0.26667 0.26667 0.00000 1
0.25833 0.25833 0.00000 1
0.25000 0.25000 0.00000 1
0.24167 0.24167 0.00000 1
0.23333 0.23333 0.00000 1
0.22500 0.22500 0.00000 1
0.21667 0.21667 0.00000 1
0.20833 0.20833 0.00000 1
0.20000 0.20000 0.00000 1
0.19167 0.19167 0.00000 1
0.18333 0.18333 0.00000 1
0.17500 0.17500 0.00000 1
0.16667 0.16667 0.00000 1
0.15833 0.15833 0.00000 1
0.15000 0.15000 0.00000 1
0.14167 0.14167 0.00000 1
0.13333 0.13333 0.00000 1
0.12500 0.12500 0.00000 1
0.11667 0.11667 0.00000 1
0.10833 0.10833 0.00000 1
0.10000 0.10000 0.00000 1
0.09167 0.09167 0.00000 1
0.08333 0.08333 0.00000 1
0.07500 0.07500 0.00000 1
0.06667 0.06667 0.00000 1
0.05833 0.05833 0.00000 1
0.05000 0.05000 0.00000 1
0.04167 0.04167 0.00000 1
0.03333 0.03333 0.00000 1
0.02500 0.02500 0.00000 1
0.01667 0.01667 0.00000 1
0.00833 0.00833 0.00000 1
0.00000 0.00000 0.00000 1
