       N       E                     dE             d eps       ncg     rms          rms(c)
DAV:   1    -0.111201130914E+04   -0.11120E+04   -0.51617E+02509632   0.307E+01    0.658E+01
RMM:   2    -0.109904696752E+04    0.12964E+02   -0.14336E+02519625   0.109E+01    0.243E+01
RMM:   3    -0.108709375217E+04    0.11953E+02   -0.41491E+01488658   0.473E+00    0.134E+01
RMM:   4    -0.108478654343E+04    0.23072E+01   -0.17975E+01513672   0.300E+00    0.885E+00
RMM:   5    -0.108346145528E+04    0.13251E+01   -0.94153E+00499810   0.211E+00    0.549E+00
RMM:   6    -0.108264528951E+04    0.81617E+00   -0.12617E+00528395   0.801E-01    0.322E+00
RMM:   7    -0.108245272150E+04    0.19257E+00   -0.58426E-01499177   0.541E-01    0.101E+00
RMM:   8    -0.108242558084E+04    0.27141E-01   -0.12805E-01505350   0.281E-01    0.416E-01
RMM:   9    -0.108242248803E+04    0.30928E-02   -0.86463E-03515853   0.928E-02    0.299E-01
RMM:  10    -0.108242169401E+04    0.79402E-03   -0.77303E-03488940   0.721E-02    0.110E-01
RMM:  11    -0.108242181776E+04   -0.12375E-03   -0.12819E-03496716   0.377E-02    0.459E-02
RMM:  12    -0.108242180387E+04    0.13898E-04   -0.32624E-04492949   0.142E-02    0.248E-02
RMM:  13    -0.108242177751E+04    0.26357E-04   -0.94429E-05477964   0.667E-03    0.110E-02
RMM:  14    -0.108242177470E+04    0.28118E-05   -0.29513E-05352995   0.400E-03
   1 F= -.11335076E+04 E0= -.11335076E+04  d E =-.800028E-12  mag=    -0.0000
