pymatgen with grid density = 659 / number of atoms
0
Gamma
7 7 1
