SYSTEM = MoS2 SOC SCF (warm, 12x12x1)
ISTART = 0
ICHARG = 2
ENCUT  = 600
EDIFF  = 1E-7
ISMEAR = 0
SIGMA  = 0.05
PREC   = Accurate
ALGO   = All
LREAL  = .FALSE.
LASPH  = .TRUE.
NELM   = 200
LMAXMIX  = 4
AMIX     = 0.2
BMIX     = 0.0001
AMIX_MAG = 0.2
BMIX_MAG = 0.0001
LSORBIT  = .TRUE.
GGA_COMPAT = .FALSE.
ISYM     = 0
SAXIS    = 0 0 1
IBRION = -1
NSW    = 0
ISIF   = 2
LDIPOL = .TRUE.
IDIPOL = 3
DIPOL  = 0.5 0.5 0.5
LWAVE = .TRUE.
LCHARG = .TRUE.
NWRITE = 3
