Surf-mp-2815                            
   1.00000000000000     
     1.5939818713880687   -2.7608568870413697    0.0000000000000000
     1.5939818713880687    2.7608568870413697    0.0000000000000000
     0.0000000000000000    0.0000000000000000   34.8790040000000019
   Mo   S 
     1     2
Direct
  0.6666669999999968  0.3333330000000032  0.1066470000000024
  0.3333330000000032  0.6666669999999968  0.0617311719827050
  0.3333330000000032  0.6666669999999968  0.1515638280172972
 
  0.00000000E+00  0.00000000E+00  0.00000000E+00
  0.00000000E+00  0.00000000E+00  0.00000000E+00
  0.00000000E+00  0.00000000E+00  0.00000000E+00
