       N       E                     dE             d eps       ncg     rms          rms(c)
DAV:   1     0.104010132346E+05    0.10401E+05   -0.56178E+05 29664   0.128E+03
DAV:   2    -0.631949100897E+02   -0.10464E+05   -0.10070E+05 30976   0.327E+02
DAV:   3    -0.107942942156E+04   -0.10162E+04   -0.99696E+03 31136   0.930E+01
DAV:   4    -0.111822389215E+04   -0.38794E+02   -0.38281E+02 32512   0.189E+01
DAV:   5    -0.111941035075E+04   -0.11865E+01   -0.11813E+01 34080   0.333E+00    0.665E+01
DAV:   6    -0.109480086075E+04    0.24609E+02   -0.82107E+01 34112   0.141E+01    0.238E+01
DAV:   7    -0.108611260358E+04    0.86883E+01   -0.54138E+01 29472   0.812E+00    0.135E+01
DAV:   8    -0.108388898621E+04    0.22236E+01   -0.15000E+01 30560   0.630E+00    0.921E+00
DAV:   9    -0.108321403636E+04    0.67495E+00   -0.10058E+01 30304   0.513E+00    0.594E+00
DAV:  10    -0.108259829774E+04    0.61574E+00   -0.40737E+00 29824   0.283E+00    0.327E+00
DAV:  11    -0.108243886869E+04    0.15943E+00   -0.10235E+00 30176   0.108E+00    0.155E+00
DAV:  12    -0.108239411928E+04    0.44749E-01   -0.33593E-01 30432   0.717E-01    0.613E-01
DAV:  13    -0.108239515836E+04   -0.10391E-02   -0.67695E-02 29248   0.308E-01    0.379E-01
DAV:  14    -0.108239327909E+04    0.18793E-02   -0.16222E-02 30112   0.117E-01    0.209E-01
DAV:  15    -0.108239326290E+04    0.16194E-04   -0.45861E-03 30912   0.860E-02    0.770E-02
DAV:  16    -0.108239330293E+04   -0.40038E-04   -0.88240E-04 29344   0.389E-02    0.457E-02
DAV:  17    -0.108239323697E+04    0.65960E-04   -0.35070E-04 29440   0.179E-02    0.209E-02
DAV:  18    -0.108239322855E+04    0.84206E-05   -0.56598E-05 29344   0.774E-03    0.923E-03
DAV:  19    -0.108239323076E+04   -0.22109E-05   -0.11704E-05 27712   0.346E-03    0.446E-03
DAV:  20    -0.108239322663E+04    0.41325E-05   -0.17970E-06 24320   0.213E-03    0.190E-03
DAV:  21    -0.108239322436E+04    0.22679E-05    0.56236E-07 14464   0.882E-04    0.120E-03
DAV:  22    -0.108239322480E+04   -0.43349E-06    0.84859E-07 14336   0.502E-04
   1 F= -.11334791E+04 E0= -.11334791E+04  d E =-.206876E-11  mag=     0.0000
