Surf-mp-1821                            
   1.00000000000000     
     1.6621391483745462   -2.8789083169392446    0.0000000000000000
     1.6621391483745462    2.8789083169392446    0.0000000000000000
     0.0000000000000000    0.0000000000000000   35.0689509999999984
   W    Se
     1     2
Direct
  0.6666669999999968  0.3333330000000032  0.1074240000000017
  0.3333330000000032  0.6666669999999968  0.0594584392818018
  0.3333330000000032  0.6666669999999968  0.1553885607181972
 
  0.00000000E+00  0.00000000E+00  0.00000000E+00
  0.00000000E+00  0.00000000E+00  0.00000000E+00
  0.00000000E+00  0.00000000E+00  0.00000000E+00
