Automatic mesh (denser for static calculation)
0
Gamma
7 7 1
0 0 0
