MoSSe_S_up__WSSe_S_up | Janus TMDC Heter
   1.00000000000000     
    15.9515798090000001    0.0000000000000000    0.0000000000000000
    -7.9757899045000000   13.8144733454999997    0.0000000000000000
     0.0000000000000000    0.0000000000000000   28.2498397219514530
   Mo   W    S    Se
    25    25    50    50
Direct
  0.1333333999999979  0.0666665999999978  0.0575146518612320
  0.1333333999999979  0.2666666000000006  0.0575146518612320
  0.1333333999999979  0.4666666000000035  0.0575146518612320
  0.1333333999999979  0.6666665999999992  0.0575146518612320
  0.1333333999999979  0.8666666000000021  0.0575146518612320
  0.3333334000000008  0.0666665999999978  0.0575146518612320
  0.3333334000000008  0.2666666000000006  0.0575146518612320
  0.3333334000000008  0.4666666000000035  0.0575146518612320
  0.3333334000000008  0.6666665999999992  0.0575146518612320
  0.3333334000000008  0.8666666000000021  0.0575146518612320
  0.5333334000000036  0.0666665999999978  0.0575146518612320
  0.5333334000000036  0.2666666000000006  0.0575146518612320
  0.5333334000000036  0.4666666000000035  0.0575146518612320
  0.5333334000000036  0.6666665999999992  0.0575146518612320
  0.5333333999999965  0.8666666000000021  0.0575146518612320
  0.7333333999999994  0.0666665999999978  0.0575146518612320
  0.7333333999999994  0.2666666000000006  0.0575146518612320
  0.7333333999999994  0.4666666000000035  0.0575146518612320
  0.7333333999999994  0.6666665999999992  0.0575146518612320
  0.7333333999999994  0.8666666000000021  0.0575146518612320
  0.9333334000000022  0.0666665999999978  0.0575146518612320
  0.9333334000000022  0.2666666000000006  0.0575146518612320
  0.9333334000000022  0.4666666000000035  0.0575146518612320
  0.9333334000000022  0.6666665999999992  0.0575146518612320
  0.9333334000000022  0.8666666000000021  0.0575146518612320
  0.0666665999999978  0.1333333999999979  0.4123436691344770
  0.0666665999999978  0.3333334000000008  0.4123436691344770
  0.0666665999999978  0.5333334000000036  0.4123436691344770
  0.0666665999999978  0.7333333999999994  0.4123436691344770
  0.0666665999999978  0.9333334000000022  0.4123436691344770
  0.2666666000000006  0.1333333999999979  0.4123436691344770
  0.2666666000000006  0.3333334000000008  0.4123436691344770
  0.2666666000000006  0.5333334000000036  0.4123436691344770
  0.2666666000000006  0.7333333999999994  0.4123436691344770
  0.2666666000000006  0.9333334000000022  0.4123436691344770
  0.4666666000000035  0.1333333999999979  0.4123436691344770
  0.4666666000000035  0.3333334000000008  0.4123436691344770
  0.4666666000000035  0.5333334000000036  0.4123436691344770
  0.4666666000000035  0.7333333999999994  0.4123436691344770
  0.4666666000000035  0.9333334000000022  0.4123436691344770
  0.6666665999999992  0.1333333999999979  0.4123436691344770
  0.6666665999999992  0.3333334000000008  0.4123436691344770
  0.6666665999999992  0.5333334000000036  0.4123436691344770
  0.6666665999999992  0.7333333999999994  0.4123436691344770
  0.6666665999999992  0.9333334000000022  0.4123436691344770
  0.8666666000000021  0.1333333999999979  0.4123436691344770
  0.8666666000000021  0.3333334000000008  0.4123436691344770
  0.8666666000000021  0.5333334000000036  0.4123436691344770
  0.8666666000000021  0.7333333999999994  0.4123436691344770
  0.8666666000000021  0.9333334000000022  0.4123436691344770
  0.0666665999999978  0.1333333999999979  0.1123114383753140
  0.0666665999999978  0.3333334000000008  0.1123114383753140
  0.0666665999999978  0.5333334000000036  0.1123114383753140
  0.0666665999999978  0.7333333999999994  0.1123114383753140
  0.0666665999999978  0.9333334000000022  0.1123114383753140
  0.2666666000000006  0.1333333999999979  0.1123114383753140
  0.2666666000000006  0.3333334000000008  0.1123114383753140
  0.2666666000000006  0.5333334000000036  0.1123114383753140
  0.2666666000000006  0.7333333999999994  0.1123114383753140
  0.2666666000000006  0.9333334000000022  0.1123114383753140
  0.4666666000000035  0.1333333999999979  0.1123114383753140
  0.4666666000000035  0.3333334000000008  0.1123114383753140
  0.4666666000000035  0.5333334000000036  0.1123114383753140
  0.4666666000000035  0.7333333999999994  0.1123114383753140
  0.4666666000000035  0.9333334000000022  0.1123114383753140
  0.6666665999999992  0.1333333999999979  0.1123114383753140
  0.6666665999999992  0.3333334000000008  0.1123114383753140
  0.6666665999999992  0.5333334000000036  0.1123114383753140
  0.6666665999999992  0.7333333999999994  0.1123114383753140
  0.6666665999999992  0.9333334000000022  0.1123114383753140
  0.8666666000000021  0.1333333999999979  0.1123114383753140
  0.8666666000000021  0.3333334000000008  0.1123114383753140
  0.8666666000000021  0.5333334000000036  0.1123114383753140
  0.8666666000000021  0.7333333999999994  0.1123114383753140
  0.8666666000000021  0.9333334000000022  0.1123114383753140
  0.1333333999999979  0.0666665999999978  0.4674900605115637
  0.1333333999999979  0.2666666000000006  0.4674900605115637
  0.1333333999999979  0.4666666000000035  0.4674900605115637
  0.1333333999999979  0.6666665999999992  0.4674900605115637
  0.1333333999999979  0.8666666000000021  0.4674900605115637
  0.3333334000000008  0.0666665999999978  0.4674900605115637
  0.3333334000000008  0.2666666000000006  0.4674900605115637
  0.3333334000000008  0.4666666000000035  0.4674900605115637
  0.3333334000000008  0.6666665999999992  0.4674900605115637
  0.3333334000000008  0.8666666000000021  0.4674900605115637
  0.5333334000000036  0.0666665999999978  0.4674900605115637
  0.5333334000000036  0.2666666000000006  0.4674900605115637
  0.5333334000000036  0.4666666000000035  0.4674900605115637
  0.5333334000000036  0.6666665999999992  0.4674900605115637
  0.5333333999999965  0.8666666000000021  0.4674900605115637
  0.7333333999999994  0.0666665999999978  0.4674900605115637
  0.7333333999999994  0.2666666000000006  0.4674900605115637
  0.7333333999999994  0.4666666000000035  0.4674900605115637
  0.7333333999999994  0.6666665999999992  0.4674900605115637
  0.7333333999999994  0.8666666000000021  0.4674900605115637
  0.9333334000000022  0.0666665999999978  0.4674900605115637
  0.9333334000000022  0.2666666000000006  0.4674900605115637
  0.9333334000000022  0.4666666000000035  0.4674900605115637
  0.9333334000000022  0.6666665999999992  0.4674900605115637
  0.9333334000000022  0.8666666000000021  0.4674900605115637
  0.0666665999999978  0.1333333999999979 -0.0035836518415768
  0.0666665999999978  0.3333334000000008 -0.0035836518415768
  0.0666665999999978  0.5333334000000036 -0.0035836518415768
  0.0666665999999978  0.7333333999999994 -0.0035836518415768
  0.0666665999999978  0.9333334000000022 -0.0035836518415768
  0.2666666000000006  0.1333333999999979 -0.0035836518415768
  0.2666666000000006  0.3333334000000008 -0.0035836518415768
  0.2666666000000006  0.5333334000000036 -0.0035836518415768
  0.2666666000000006  0.7333333999999994 -0.0035836518415768
  0.2666666000000006  0.9333334000000022 -0.0035836518415768
  0.4666666000000035  0.1333333999999979 -0.0035836518415768
  0.4666666000000035  0.3333334000000008 -0.0035836518415768
  0.4666666000000035  0.5333334000000036 -0.0035836518415768
  0.4666666000000035  0.7333333999999994 -0.0035836518415768
  0.4666666000000035  0.9333334000000022 -0.0035836518415768
  0.6666665999999992  0.1333333999999979 -0.0035836518415768
  0.6666665999999992  0.3333334000000008 -0.0035836518415768
  0.6666665999999992  0.5333334000000036 -0.0035836518415768
  0.6666665999999992  0.7333333999999994 -0.0035836518415768
  0.6666665999999992  0.9333334000000022 -0.0035836518415768
  0.8666666000000021  0.1333333999999979 -0.0035836518415768
  0.8666666000000021  0.3333334000000008 -0.0035836518415768
  0.8666666000000021  0.5333334000000036 -0.0035836518415768
  0.8666666000000021  0.7333333999999994 -0.0035836518415768
  0.8666666000000021  0.9333334000000022 -0.0035836518415768
  0.1333333999999979  0.0666665999999978  0.3508898279312065
  0.1333333999999979  0.2666666000000006  0.3508898279312065
  0.1333333999999979  0.4666666000000035  0.3508898279312065
  0.1333333999999979  0.6666665999999992  0.3508898279312065
  0.1333333999999979  0.8666666000000021  0.3508898279312065
  0.3333334000000008  0.0666665999999978  0.3508898279312065
  0.3333334000000008  0.2666666000000006  0.3508898279312065
  0.3333334000000008  0.4666666000000035  0.3508898279312065
  0.3333334000000008  0.6666665999999992  0.3508898279312065
  0.3333334000000008  0.8666666000000021  0.3508898279312065
  0.5333334000000036  0.0666665999999978  0.3508898279312065
  0.5333334000000036  0.2666666000000006  0.3508898279312065
  0.5333334000000036  0.4666666000000035  0.3508898279312065
  0.5333334000000036  0.6666665999999992  0.3508898279312065
  0.5333333999999965  0.8666666000000021  0.3508898279312065
  0.7333333999999994  0.0666665999999978  0.3508898279312065
  0.7333333999999994  0.2666666000000006  0.3508898279312065
  0.7333333999999994  0.4666666000000035  0.3508898279312065
  0.7333333999999994  0.6666665999999992  0.3508898279312065
  0.7333333999999994  0.8666666000000021  0.3508898279312065
  0.9333334000000022  0.0666665999999978  0.3508898279312065
  0.9333334000000022  0.2666666000000006  0.3508898279312065
  0.9333334000000022  0.4666666000000035  0.3508898279312065
  0.9333334000000022  0.6666665999999992  0.3508898279312065
  0.9333334000000022  0.8666666000000021  0.3508898279312065
 
  0.00000000E+00  0.00000000E+00  0.00000000E+00
  0.00000000E+00  0.00000000E+00  0.00000000E+00
  0.00000000E+00  0.00000000E+00  0.00000000E+00
  0.00000000E+00  0.00000000E+00  0.00000000E+00
  0.00000000E+00  0.00000000E+00  0.00000000E+00
  0.00000000E+00  0.00000000E+00  0.00000000E+00
  0.00000000E+00  0.00000000E+00  0.00000000E+00
  0.00000000E+00  0.00000000E+00  0.00000000E+00
  0.00000000E+00  0.00000000E+00  0.00000000E+00
  0.00000000E+00  0.00000000E+00  0.00000000E+00
  0.00000000E+00  0.00000000E+00  0.00000000E+00
  0.00000000E+00  0.00000000E+00  0.00000000E+00
  0.00000000E+00  0.00000000E+00  0.00000000E+00
  0.00000000E+00  0.00000000E+00  0.00000000E+00
  0.00000000E+00  0.00000000E+00  0.00000000E+00
  0.00000000E+00  0.00000000E+00  0.00000000E+00
  0.00000000E+00  0.00000000E+00  0.00000000E+00
  0.00000000E+00  0.00000000E+00  0.00000000E+00
  0.00000000E+00  0.00000000E+00  0.00000000E+00
  0.00000000E+00  0.00000000E+00  0.00000000E+00
  0.00000000E+00  0.00000000E+00  0.00000000E+00
  0.00000000E+00  0.00000000E+00  0.00000000E+00
  0.00000000E+00  0.00000000E+00  0.00000000E+00
  0.00000000E+00  0.00000000E+00  0.00000000E+00
  0.00000000E+00  0.00000000E+00  0.00000000E+00
  0.00000000E+00  0.00000000E+00  0.00000000E+00
  0.00000000E+00  0.00000000E+00  0.00000000E+00
  0.00000000E+00  0.00000000E+00  0.00000000E+00
  0.00000000E+00  0.00000000E+00  0.00000000E+00
  0.00000000E+00  0.00000000E+00  0.00000000E+00
  0.00000000E+00  0.00000000E+00  0.00000000E+00
  0.00000000E+00  0.00000000E+00  0.00000000E+00
  0.00000000E+00  0.00000000E+00  0.00000000E+00
  0.00000000E+00  0.00000000E+00  0.00000000E+00
  0.00000000E+00  0.00000000E+00  0.00000000E+00
  0.00000000E+00  0.00000000E+00  0.00000000E+00
  0.00000000E+00  0.00000000E+00  0.00000000E+00
  0.00000000E+00  0.00000000E+00  0.00000000E+00
  0.00000000E+00  0.00000000E+00  0.00000000E+00
  0.00000000E+00  0.00000000E+00  0.00000000E+00
  0.00000000E+00  0.00000000E+00  0.00000000E+00
  0.00000000E+00  0.00000000E+00  0.00000000E+00
  0.00000000E+00  0.00000000E+00  0.00000000E+00
  0.00000000E+00  0.00000000E+00  0.00000000E+00
  0.00000000E+00  0.00000000E+00  0.00000000E+00
  0.00000000E+00  0.00000000E+00  0.00000000E+00
  0.00000000E+00  0.00000000E+00  0.00000000E+00
  0.00000000E+00  0.00000000E+00  0.00000000E+00
  0.00000000E+00  0.00000000E+00  0.00000000E+00
  0.00000000E+00  0.00000000E+00  0.00000000E+00
  0.00000000E+00  0.00000000E+00  0.00000000E+00
  0.00000000E+00  0.00000000E+00  0.00000000E+00
  0.00000000E+00  0.00000000E+00  0.00000000E+00
  0.00000000E+00  0.00000000E+00  0.00000000E+00
  0.00000000E+00  0.00000000E+00  0.00000000E+00
  0.00000000E+00  0.00000000E+00  0.00000000E+00
  0.00000000E+00  0.00000000E+00  0.00000000E+00
  0.00000000E+00  0.00000000E+00  0.00000000E+00
  0.00000000E+00  0.00000000E+00  0.00000000E+00
  0.00000000E+00  0.00000000E+00  0.00000000E+00
  0.00000000E+00  0.00000000E+00  0.00000000E+00
  0.00000000E+00  0.00000000E+00  0.00000000E+00
  0.00000000E+00  0.00000000E+00  0.00000000E+00
  0.00000000E+00  0.00000000E+00  0.00000000E+00
  0.00000000E+00  0.00000000E+00  0.00000000E+00
  0.00000000E+00  0.00000000E+00  0.00000000E+00
  0.00000000E+00  0.00000000E+00  0.00000000E+00
  0.00000000E+00  0.00000000E+00  0.00000000E+00
  0.00000000E+00  0.00000000E+00  0.00000000E+00
  0.00000000E+00  0.00000000E+00  0.00000000E+00
  0.00000000E+00  0.00000000E+00  0.00000000E+00
  0.00000000E+00  0.00000000E+00  0.00000000E+00
  0.00000000E+00  0.00000000E+00  0.00000000E+00
  0.00000000E+00  0.00000000E+00  0.00000000E+00
  0.00000000E+00  0.00000000E+00  0.00000000E+00
  0.00000000E+00  0.00000000E+00  0.00000000E+00
  0.00000000E+00  0.00000000E+00  0.00000000E+00
  0.00000000E+00  0.00000000E+00  0.00000000E+00
  0.00000000E+00  0.00000000E+00  0.00000000E+00
  0.00000000E+00  0.00000000E+00  0.00000000E+00
  0.00000000E+00  0.00000000E+00  0.00000000E+00
  0.00000000E+00  0.00000000E+00  0.00000000E+00
  0.00000000E+00  0.00000000E+00  0.00000000E+00
  0.00000000E+00  0.00000000E+00  0.00000000E+00
  0.00000000E+00  0.00000000E+00  0.00000000E+00
  0.00000000E+00  0.00000000E+00  0.00000000E+00
  0.00000000E+00  0.00000000E+00  0.00000000E+00
  0.00000000E+00  0.00000000E+00  0.00000000E+00
  0.00000000E+00  0.00000000E+00  0.00000000E+00
  0.00000000E+00  0.00000000E+00  0.00000000E+00
  0.00000000E+00  0.00000000E+00  0.00000000E+00
  0.00000000E+00  0.00000000E+00  0.00000000E+00
  0.00000000E+00  0.00000000E+00  0.00000000E+00
  0.00000000E+00  0.00000000E+00  0.00000000E+00
  0.00000000E+00  0.00000000E+00  0.00000000E+00
  0.00000000E+00  0.00000000E+00  0.00000000E+00
  0.00000000E+00  0.00000000E+00  0.00000000E+00
  0.00000000E+00  0.00000000E+00  0.00000000E+00
  0.00000000E+00  0.00000000E+00  0.00000000E+00
  0.00000000E+00  0.00000000E+00  0.00000000E+00
  0.00000000E+00  0.00000000E+00  0.00000000E+00
  0.00000000E+00  0.00000000E+00  0.00000000E+00
  0.00000000E+00  0.00000000E+00  0.00000000E+00
  0.00000000E+00  0.00000000E+00  0.00000000E+00
  0.00000000E+00  0.00000000E+00  0.00000000E+00
  0.00000000E+00  0.00000000E+00  0.00000000E+00
  0.00000000E+00  0.00000000E+00  0.00000000E+00
  0.00000000E+00  0.00000000E+00  0.00000000E+00
  0.00000000E+00  0.00000000E+00  0.00000000E+00
  0.00000000E+00  0.00000000E+00  0.00000000E+00
  0.00000000E+00  0.00000000E+00  0.00000000E+00
  0.00000000E+00  0.00000000E+00  0.00000000E+00
  0.00000000E+00  0.00000000E+00  0.00000000E+00
  0.00000000E+00  0.00000000E+00  0.00000000E+00
  0.00000000E+00  0.00000000E+00  0.00000000E+00
  0.00000000E+00  0.00000000E+00  0.00000000E+00
  0.00000000E+00  0.00000000E+00  0.00000000E+00
  0.00000000E+00  0.00000000E+00  0.00000000E+00
  0.00000000E+00  0.00000000E+00  0.00000000E+00
  0.00000000E+00  0.00000000E+00  0.00000000E+00
  0.00000000E+00  0.00000000E+00  0.00000000E+00
  0.00000000E+00  0.00000000E+00  0.00000000E+00
  0.00000000E+00  0.00000000E+00  0.00000000E+00
  0.00000000E+00  0.00000000E+00  0.00000000E+00
  0.00000000E+00  0.00000000E+00  0.00000000E+00
  0.00000000E+00  0.00000000E+00  0.00000000E+00
  0.00000000E+00  0.00000000E+00  0.00000000E+00
  0.00000000E+00  0.00000000E+00  0.00000000E+00
  0.00000000E+00  0.00000000E+00  0.00000000E+00
  0.00000000E+00  0.00000000E+00  0.00000000E+00
  0.00000000E+00  0.00000000E+00  0.00000000E+00
  0.00000000E+00  0.00000000E+00  0.00000000E+00
  0.00000000E+00  0.00000000E+00  0.00000000E+00
  0.00000000E+00  0.00000000E+00  0.00000000E+00
  0.00000000E+00  0.00000000E+00  0.00000000E+00
  0.00000000E+00  0.00000000E+00  0.00000000E+00
  0.00000000E+00  0.00000000E+00  0.00000000E+00
  0.00000000E+00  0.00000000E+00  0.00000000E+00
  0.00000000E+00  0.00000000E+00  0.00000000E+00
  0.00000000E+00  0.00000000E+00  0.00000000E+00
  0.00000000E+00  0.00000000E+00  0.00000000E+00
  0.00000000E+00  0.00000000E+00  0.00000000E+00
  0.00000000E+00  0.00000000E+00  0.00000000E+00
  0.00000000E+00  0.00000000E+00  0.00000000E+00
  0.00000000E+00  0.00000000E+00  0.00000000E+00
  0.00000000E+00  0.00000000E+00  0.00000000E+00
  0.00000000E+00  0.00000000E+00  0.00000000E+00
  0.00000000E+00  0.00000000E+00  0.00000000E+00
  0.00000000E+00  0.00000000E+00  0.00000000E+00
  0.00000000E+00  0.00000000E+00  0.00000000E+00
