MoSSe_Se_up__WSSe_Se_up | Janus TMDC Het
   1.00000000000000     
    15.9515798090000001    0.0000000000000000    0.0000000000000000
    -7.9757899045000000   13.8144733454999997    0.0000000000000000
     0.0000000000000000    0.0000000000000000   28.2498397219514530
   Mo   W    S    Se
    25    25    50    50
Direct
  0.1333333999999979  0.0666665999999978  0.0533132168159512
  0.1333333999999979  0.2666666000000006  0.0533132168159512
  0.1333333999999979  0.4666666000000035  0.0533132168159512
  0.1333333999999979  0.6666665999999992  0.0533132168159512
  0.1333333999999979  0.8666666000000021  0.0533132168159512
  0.3333334000000008  0.0666665999999978  0.0533132168159512
  0.3333334000000008  0.2666666000000006  0.0533132168159512
  0.3333334000000008  0.4666666000000035  0.0533132168159512
  0.3333334000000008  0.6666665999999992  0.0533132168159512
  0.3333334000000008  0.8666666000000021  0.0533132168159512
  0.5333334000000036  0.0666665999999978  0.0533132168159512
  0.5333334000000036  0.2666666000000006  0.0533132168159512
  0.5333334000000036  0.4666666000000035  0.0533132168159512
  0.5333334000000036  0.6666665999999992  0.0533132168159512
  0.5333333999999965  0.8666666000000021  0.0533132168159512
  0.7333333999999994  0.0666665999999978  0.0533132168159512
  0.7333333999999994  0.2666666000000006  0.0533132168159512
  0.7333333999999994  0.4666666000000035  0.0533132168159512
  0.7333333999999994  0.6666665999999992  0.0533132168159512
  0.7333333999999994  0.8666666000000021  0.0533132168159512
  0.9333334000000022  0.0666665999999978  0.0533132168159512
  0.9333334000000022  0.2666666000000006  0.0533132168159512
  0.9333334000000022  0.4666666000000035  0.0533132168159512
  0.9333334000000022  0.6666665999999992  0.0533132168159512
  0.9333334000000022  0.8666666000000021  0.0533132168159512
  0.0666665999999978  0.1333333999999979  0.4081380961000371
  0.0666665999999978  0.3333334000000008  0.4081380961000371
  0.0666665999999978  0.5333334000000036  0.4081380961000371
  0.0666665999999978  0.7333333999999994  0.4081380961000371
  0.0666665999999978  0.9333334000000022  0.4081380961000371
  0.2666666000000006  0.1333333999999979  0.4081380961000371
  0.2666666000000006  0.3333334000000008  0.4081380961000371
  0.2666666000000006  0.5333334000000036  0.4081380961000371
  0.2666666000000006  0.7333333999999994  0.4081380961000371
  0.2666666000000006  0.9333334000000022  0.4081380961000371
  0.4666666000000035  0.1333333999999979  0.4081380961000371
  0.4666666000000035  0.3333334000000008  0.4081380961000371
  0.4666666000000035  0.5333334000000036  0.4081380961000371
  0.4666666000000035  0.7333333999999994  0.4081380961000371
  0.4666666000000035  0.9333334000000022  0.4081380961000371
  0.6666665999999992  0.1333333999999979  0.4081380961000371
  0.6666665999999992  0.3333334000000008  0.4081380961000371
  0.6666665999999992  0.5333334000000036  0.4081380961000371
  0.6666665999999992  0.7333333999999994  0.4081380961000371
  0.6666665999999992  0.9333334000000022  0.4081380961000371
  0.8666666000000021  0.1333333999999979  0.4081380961000371
  0.8666666000000021  0.3333334000000008  0.4081380961000371
  0.8666666000000021  0.5333334000000036  0.4081380961000371
  0.8666666000000021  0.7333333999999994  0.4081380961000371
  0.8666666000000021  0.9333334000000022  0.4081380961000371
  0.0666665999999978  0.1333333999999979 -0.0014864147850353
  0.0666665999999978  0.3333334000000008 -0.0014864147850353
  0.0666665999999978  0.5333334000000036 -0.0014864147850353
  0.0666665999999978  0.7333333999999994 -0.0014864147850353
  0.0666665999999978  0.9333334000000022 -0.0014864147850353
  0.2666666000000006  0.1333333999999979 -0.0014864147850353
  0.2666666000000006  0.3333334000000008 -0.0014864147850353
  0.2666666000000006  0.5333334000000036 -0.0014864147850353
  0.2666666000000006  0.7333333999999994 -0.0014864147850353
  0.2666666000000006  0.9333334000000022 -0.0014864147850353
  0.4666666000000035  0.1333333999999979 -0.0014864147850353
  0.4666666000000035  0.3333334000000008 -0.0014864147850353
  0.4666666000000035  0.5333334000000036 -0.0014864147850353
  0.4666666000000035  0.7333333999999994 -0.0014864147850353
  0.4666666000000035  0.9333334000000022 -0.0014864147850353
  0.6666665999999992  0.1333333999999979 -0.0014864147850353
  0.6666665999999992  0.3333334000000008 -0.0014864147850353
  0.6666665999999992  0.5333334000000036 -0.0014864147850353
  0.6666665999999992  0.7333333999999994 -0.0014864147850353
  0.6666665999999992  0.9333334000000022 -0.0014864147850353
  0.8666666000000021  0.1333333999999979 -0.0014864147850353
  0.8666666000000021  0.3333334000000008 -0.0014864147850353
  0.8666666000000021  0.5333334000000036 -0.0014864147850353
  0.8666666000000021  0.7333333999999994 -0.0014864147850353
  0.8666666000000021  0.9333334000000022 -0.0014864147850353
  0.1333333999999979  0.0666665999999978  0.3529950452875500
  0.1333333999999979  0.2666666000000006  0.3529950452875500
  0.1333333999999979  0.4666666000000035  0.3529950452875500
  0.1333333999999979  0.6666665999999992  0.3529950452875500
  0.1333333999999979  0.8666666000000021  0.3529950452875500
  0.3333334000000008  0.0666665999999978  0.3529950452875500
  0.3333334000000008  0.2666666000000006  0.3529950452875500
  0.3333334000000008  0.4666666000000035  0.3529950452875500
  0.3333334000000008  0.6666665999999992  0.3529950452875500
  0.3333334000000008  0.8666666000000021  0.3529950452875500
  0.5333334000000036  0.0666665999999978  0.3529950452875500
  0.5333334000000036  0.2666666000000006  0.3529950452875500
  0.5333334000000036  0.4666666000000035  0.3529950452875500
  0.5333334000000036  0.6666665999999992  0.3529950452875500
  0.5333333999999965  0.8666666000000021  0.3529950452875500
  0.7333333999999994  0.0666665999999978  0.3529950452875500
  0.7333333999999994  0.2666666000000006  0.3529950452875500
  0.7333333999999994  0.4666666000000035  0.3529950452875500
  0.7333333999999994  0.6666665999999992  0.3529950452875500
  0.7333333999999994  0.8666666000000021  0.3529950452875500
  0.9333334000000022  0.0666665999999978  0.3529950452875500
  0.9333334000000022  0.2666666000000006  0.3529950452875500
  0.9333334000000022  0.4666666000000035  0.3529950452875500
  0.9333334000000022  0.6666665999999992  0.3529950452875500
  0.9333334000000022  0.8666666000000021  0.3529950452875500
  0.0666665999999978  0.1333333999999979  0.1144158286018136
  0.0666665999999978  0.3333334000000008  0.1144158286018136
  0.0666665999999978  0.5333334000000036  0.1144158286018136
  0.0666665999999978  0.7333333999999994  0.1144158286018136
  0.0666665999999978  0.9333334000000022  0.1144158286018136
  0.2666666000000006  0.1333333999999979  0.1144158286018136
  0.2666666000000006  0.3333334000000008  0.1144158286018136
  0.2666666000000006  0.5333334000000036  0.1144158286018136
  0.2666666000000006  0.7333333999999994  0.1144158286018136
  0.2666666000000006  0.9333334000000022  0.1144158286018136
  0.4666666000000035  0.1333333999999979  0.1144158286018136
  0.4666666000000035  0.3333334000000008  0.1144158286018136
  0.4666666000000035  0.5333334000000036  0.1144158286018136
  0.4666666000000035  0.7333333999999994  0.1144158286018136
  0.4666666000000035  0.9333334000000022  0.1144158286018136
  0.6666665999999992  0.1333333999999979  0.1144158286018136
  0.6666665999999992  0.3333334000000008  0.1144158286018136
  0.6666665999999992  0.5333334000000036  0.1144158286018136
  0.6666665999999992  0.7333333999999994  0.1144158286018136
  0.6666665999999992  0.9333334000000022  0.1144158286018136
  0.8666666000000021  0.1333333999999979  0.1144158286018136
  0.8666666000000021  0.3333334000000008  0.1144158286018136
  0.8666666000000021  0.5333334000000036  0.1144158286018136
  0.8666666000000021  0.7333333999999994  0.1144158286018136
  0.8666666000000021  0.9333334000000022  0.1144158286018136
  0.1333333999999979  0.0666665999999978  0.4695902239518999
  0.1333333999999979  0.2666666000000006  0.4695902239518999
  0.1333333999999979  0.4666666000000035  0.4695902239518999
  0.1333333999999979  0.6666665999999992  0.4695902239518999
  0.1333333999999979  0.8666666000000021  0.4695902239518999
  0.3333334000000008  0.0666665999999978  0.4695902239518999
  0.3333334000000008  0.2666666000000006  0.4695902239518999
  0.3333334000000008  0.4666666000000035  0.4695902239518999
  0.3333334000000008  0.6666665999999992  0.4695902239518999
  0.3333334000000008  0.8666666000000021  0.4695902239518999
  0.5333334000000036  0.0666665999999978  0.4695902239518999
  0.5333334000000036  0.2666666000000006  0.4695902239518999
  0.5333334000000036  0.4666666000000035  0.4695902239518999
  0.5333334000000036  0.6666665999999992  0.4695902239518999
  0.5333333999999965  0.8666666000000021  0.4695902239518999
  0.7333333999999994  0.0666665999999978  0.4695902239518999
  0.7333333999999994  0.2666666000000006  0.4695902239518999
  0.7333333999999994  0.4666666000000035  0.4695902239518999
  0.7333333999999994  0.6666665999999992  0.4695902239518999
  0.7333333999999994  0.8666666000000021  0.4695902239518999
  0.9333334000000022  0.0666665999999978  0.4695902239518999
  0.9333334000000022  0.2666666000000006  0.4695902239518999
  0.9333334000000022  0.4666666000000035  0.4695902239518999
  0.9333334000000022  0.6666665999999992  0.4695902239518999
  0.9333334000000022  0.8666666000000021  0.4695902239518999
 
  0.00000000E+00  0.00000000E+00  0.00000000E+00
  0.00000000E+00  0.00000000E+00  0.00000000E+00
  0.00000000E+00  0.00000000E+00  0.00000000E+00
  0.00000000E+00  0.00000000E+00  0.00000000E+00
  0.00000000E+00  0.00000000E+00  0.00000000E+00
  0.00000000E+00  0.00000000E+00  0.00000000E+00
  0.00000000E+00  0.00000000E+00  0.00000000E+00
  0.00000000E+00  0.00000000E+00  0.00000000E+00
  0.00000000E+00  0.00000000E+00  0.00000000E+00
  0.00000000E+00  0.00000000E+00  0.00000000E+00
  0.00000000E+00  0.00000000E+00  0.00000000E+00
  0.00000000E+00  0.00000000E+00  0.00000000E+00
  0.00000000E+00  0.00000000E+00  0.00000000E+00
  0.00000000E+00  0.00000000E+00  0.00000000E+00
  0.00000000E+00  0.00000000E+00  0.00000000E+00
  0.00000000E+00  0.00000000E+00  0.00000000E+00
  0.00000000E+00  0.00000000E+00  0.00000000E+00
  0.00000000E+00  0.00000000E+00  0.00000000E+00
  0.00000000E+00  0.00000000E+00  0.00000000E+00
  0.00000000E+00  0.00000000E+00  0.00000000E+00
  0.00000000E+00  0.00000000E+00  0.00000000E+00
  0.00000000E+00  0.00000000E+00  0.00000000E+00
  0.00000000E+00  0.00000000E+00  0.00000000E+00
  0.00000000E+00  0.00000000E+00  0.00000000E+00
  0.00000000E+00  0.00000000E+00  0.00000000E+00
  0.00000000E+00  0.00000000E+00  0.00000000E+00
  0.00000000E+00  0.00000000E+00  0.00000000E+00
  0.00000000E+00  0.00000000E+00  0.00000000E+00
  0.00000000E+00  0.00000000E+00  0.00000000E+00
  0.00000000E+00  0.00000000E+00  0.00000000E+00
  0.00000000E+00  0.00000000E+00  0.00000000E+00
  0.00000000E+00  0.00000000E+00  0.00000000E+00
  0.00000000E+00  0.00000000E+00  0.00000000E+00
  0.00000000E+00  0.00000000E+00  0.00000000E+00
  0.00000000E+00  0.00000000E+00  0.00000000E+00
  0.00000000E+00  0.00000000E+00  0.00000000E+00
  0.00000000E+00  0.00000000E+00  0.00000000E+00
  0.00000000E+00  0.00000000E+00  0.00000000E+00
  0.00000000E+00  0.00000000E+00  0.00000000E+00
  0.00000000E+00  0.00000000E+00  0.00000000E+00
  0.00000000E+00  0.00000000E+00  0.00000000E+00
  0.00000000E+00  0.00000000E+00  0.00000000E+00
  0.00000000E+00  0.00000000E+00  0.00000000E+00
  0.00000000E+00  0.00000000E+00  0.00000000E+00
  0.00000000E+00  0.00000000E+00  0.00000000E+00
  0.00000000E+00  0.00000000E+00  0.00000000E+00
  0.00000000E+00  0.00000000E+00  0.00000000E+00
  0.00000000E+00  0.00000000E+00  0.00000000E+00
  0.00000000E+00  0.00000000E+00  0.00000000E+00
  0.00000000E+00  0.00000000E+00  0.00000000E+00
  0.00000000E+00  0.00000000E+00  0.00000000E+00
  0.00000000E+00  0.00000000E+00  0.00000000E+00
  0.00000000E+00  0.00000000E+00  0.00000000E+00
  0.00000000E+00  0.00000000E+00  0.00000000E+00
  0.00000000E+00  0.00000000E+00  0.00000000E+00
  0.00000000E+00  0.00000000E+00  0.00000000E+00
  0.00000000E+00  0.00000000E+00  0.00000000E+00
  0.00000000E+00  0.00000000E+00  0.00000000E+00
  0.00000000E+00  0.00000000E+00  0.00000000E+00
  0.00000000E+00  0.00000000E+00  0.00000000E+00
  0.00000000E+00  0.00000000E+00  0.00000000E+00
  0.00000000E+00  0.00000000E+00  0.00000000E+00
  0.00000000E+00  0.00000000E+00  0.00000000E+00
  0.00000000E+00  0.00000000E+00  0.00000000E+00
  0.00000000E+00  0.00000000E+00  0.00000000E+00
  0.00000000E+00  0.00000000E+00  0.00000000E+00
  0.00000000E+00  0.00000000E+00  0.00000000E+00
  0.00000000E+00  0.00000000E+00  0.00000000E+00
  0.00000000E+00  0.00000000E+00  0.00000000E+00
  0.00000000E+00  0.00000000E+00  0.00000000E+00
  0.00000000E+00  0.00000000E+00  0.00000000E+00
  0.00000000E+00  0.00000000E+00  0.00000000E+00
  0.00000000E+00  0.00000000E+00  0.00000000E+00
  0.00000000E+00  0.00000000E+00  0.00000000E+00
  0.00000000E+00  0.00000000E+00  0.00000000E+00
  0.00000000E+00  0.00000000E+00  0.00000000E+00
  0.00000000E+00  0.00000000E+00  0.00000000E+00
  0.00000000E+00  0.00000000E+00  0.00000000E+00
  0.00000000E+00  0.00000000E+00  0.00000000E+00
  0.00000000E+00  0.00000000E+00  0.00000000E+00
  0.00000000E+00  0.00000000E+00  0.00000000E+00
  0.00000000E+00  0.00000000E+00  0.00000000E+00
  0.00000000E+00  0.00000000E+00  0.00000000E+00
  0.00000000E+00  0.00000000E+00  0.00000000E+00
  0.00000000E+00  0.00000000E+00  0.00000000E+00
  0.00000000E+00  0.00000000E+00  0.00000000E+00
  0.00000000E+00  0.00000000E+00  0.00000000E+00
  0.00000000E+00  0.00000000E+00  0.00000000E+00
  0.00000000E+00  0.00000000E+00  0.00000000E+00
  0.00000000E+00  0.00000000E+00  0.00000000E+00
  0.00000000E+00  0.00000000E+00  0.00000000E+00
  0.00000000E+00  0.00000000E+00  0.00000000E+00
  0.00000000E+00  0.00000000E+00  0.00000000E+00
  0.00000000E+00  0.00000000E+00  0.00000000E+00
  0.00000000E+00  0.00000000E+00  0.00000000E+00
  0.00000000E+00  0.00000000E+00  0.00000000E+00
  0.00000000E+00  0.00000000E+00  0.00000000E+00
  0.00000000E+00  0.00000000E+00  0.00000000E+00
  0.00000000E+00  0.00000000E+00  0.00000000E+00
  0.00000000E+00  0.00000000E+00  0.00000000E+00
  0.00000000E+00  0.00000000E+00  0.00000000E+00
  0.00000000E+00  0.00000000E+00  0.00000000E+00
  0.00000000E+00  0.00000000E+00  0.00000000E+00
  0.00000000E+00  0.00000000E+00  0.00000000E+00
  0.00000000E+00  0.00000000E+00  0.00000000E+00
  0.00000000E+00  0.00000000E+00  0.00000000E+00
  0.00000000E+00  0.00000000E+00  0.00000000E+00
  0.00000000E+00  0.00000000E+00  0.00000000E+00
  0.00000000E+00  0.00000000E+00  0.00000000E+00
  0.00000000E+00  0.00000000E+00  0.00000000E+00
  0.00000000E+00  0.00000000E+00  0.00000000E+00
  0.00000000E+00  0.00000000E+00  0.00000000E+00
  0.00000000E+00  0.00000000E+00  0.00000000E+00
  0.00000000E+00  0.00000000E+00  0.00000000E+00
  0.00000000E+00  0.00000000E+00  0.00000000E+00
  0.00000000E+00  0.00000000E+00  0.00000000E+00
  0.00000000E+00  0.00000000E+00  0.00000000E+00
  0.00000000E+00  0.00000000E+00  0.00000000E+00
  0.00000000E+00  0.00000000E+00  0.00000000E+00
  0.00000000E+00  0.00000000E+00  0.00000000E+00
  0.00000000E+00  0.00000000E+00  0.00000000E+00
  0.00000000E+00  0.00000000E+00  0.00000000E+00
  0.00000000E+00  0.00000000E+00  0.00000000E+00
  0.00000000E+00  0.00000000E+00  0.00000000E+00
  0.00000000E+00  0.00000000E+00  0.00000000E+00
  0.00000000E+00  0.00000000E+00  0.00000000E+00
  0.00000000E+00  0.00000000E+00  0.00000000E+00
  0.00000000E+00  0.00000000E+00  0.00000000E+00
  0.00000000E+00  0.00000000E+00  0.00000000E+00
  0.00000000E+00  0.00000000E+00  0.00000000E+00
  0.00000000E+00  0.00000000E+00  0.00000000E+00
  0.00000000E+00  0.00000000E+00  0.00000000E+00
  0.00000000E+00  0.00000000E+00  0.00000000E+00
  0.00000000E+00  0.00000000E+00  0.00000000E+00
  0.00000000E+00  0.00000000E+00  0.00000000E+00
  0.00000000E+00  0.00000000E+00  0.00000000E+00
  0.00000000E+00  0.00000000E+00  0.00000000E+00
  0.00000000E+00  0.00000000E+00  0.00000000E+00
  0.00000000E+00  0.00000000E+00  0.00000000E+00
  0.00000000E+00  0.00000000E+00  0.00000000E+00
  0.00000000E+00  0.00000000E+00  0.00000000E+00
  0.00000000E+00  0.00000000E+00  0.00000000E+00
  0.00000000E+00  0.00000000E+00  0.00000000E+00
  0.00000000E+00  0.00000000E+00  0.00000000E+00
  0.00000000E+00  0.00000000E+00  0.00000000E+00
  0.00000000E+00  0.00000000E+00  0.00000000E+00
  0.00000000E+00  0.00000000E+00  0.00000000E+00
  0.00000000E+00  0.00000000E+00  0.00000000E+00
  0.00000000E+00  0.00000000E+00  0.00000000E+00
  0.00000000E+00  0.00000000E+00  0.00000000E+00
