       N       E                     dE             d eps       ncg     rms          rms(c)
DAV:   1     0.103988698509E+05    0.10399E+05   -0.56173E+05 29664   0.128E+03
DAV:   2    -0.601330885109E+02   -0.10459E+05   -0.10062E+05 30880   0.327E+02
DAV:   3    -0.107962177034E+04   -0.10195E+04   -0.10004E+04 31168   0.932E+01
DAV:   4    -0.111827410554E+04   -0.38652E+02   -0.38159E+02 32608   0.189E+01
DAV:   5    -0.111940531361E+04   -0.11312E+01   -0.11256E+01 33696   0.329E+00    0.665E+01
DAV:   6    -0.109470921838E+04    0.24696E+02   -0.80283E+01 34208   0.136E+01    0.237E+01
DAV:   7    -0.108548075212E+04    0.92285E+01   -0.50857E+01 29312   0.686E+00    0.136E+01
DAV:   8    -0.108332825987E+04    0.21525E+01   -0.10640E+01 32384   0.403E+00    0.821E+00
DAV:   9    -0.108270796499E+04    0.62029E+00   -0.28333E+00 30144   0.195E+00    0.422E+00
DAV:  10    -0.108265990034E+04    0.48065E-01   -0.85956E-01 31104   0.143E+00    0.208E+00
DAV:  11    -0.108251299928E+04    0.14690E+00   -0.58261E-01 31232   0.141E+00    0.110E+00
DAV:  12    -0.108246611593E+04    0.46883E-01   -0.24166E-01 30336   0.720E-01    0.549E-01
DAV:  13    -0.108246710927E+04   -0.99334E-03   -0.74023E-02 29824   0.258E-01    0.426E-01
DAV:  14    -0.108246472933E+04    0.23799E-02   -0.78322E-03 30048   0.937E-02    0.250E-01
DAV:  15    -0.108246467490E+04    0.54431E-04   -0.54301E-03 30336   0.748E-02    0.740E-02
DAV:  16    -0.108246476948E+04   -0.94585E-04   -0.89861E-04 29920   0.316E-02    0.470E-02
DAV:  17    -0.108246473429E+04    0.35193E-04   -0.18816E-04 31520   0.145E-02    0.213E-02
DAV:  18    -0.108246474806E+04   -0.13770E-04   -0.47113E-05 29760   0.784E-03    0.101E-02
DAV:  19    -0.108246474553E+04    0.25293E-05   -0.97452E-06 28768   0.357E-03    0.388E-03
DAV:  20    -0.108246473859E+04    0.69457E-05   -0.61427E-07 22464   0.172E-03    0.193E-03
DAV:  21    -0.108246473790E+04    0.68732E-06    0.33615E-07 15072   0.951E-04
   1 F= -.11334469E+04 E0= -.11334469E+04  d E =-.187437E-10  mag=    -0.0000
