pymatgen with grid density = 726 / number of atoms
0
Gamma
8 8 1
